%nproc=15
%mem=70GB
%chk=ExtendedTrisPhenyl_BoronicAcid_Borosilicate.chk
#P B3LYP/6-311++G(d,p) EmpiricalDispersion=GD3 opt SCF=YQC

Comment

0 1
 C    2.406280000000000    -1.304070000000000    -0.188810000000000
 C    1.203390000000000    -0.548970000000000    -0.106440000000000
 C    -0.027230000000000    -1.203660000000000    -0.047250000000000
 H    -0.068540000000000    -2.290310000000000    -0.082140000000000
 C    -1.205400000000000    -0.462500000000000    0.059980000000000
 C    -2.456090000000000    -1.145820000000000    0.109240000000000
 C    -1.153500000000000    0.928000000000000    0.109830000000000
 H    -2.069380000000000    1.508030000000000    0.195200000000000
 C    0.083700000000000    1.572160000000000    0.044410000000000
 C    0.148000000000000    2.991420000000000    0.079300000000000
 C    1.263040000000000    0.839400000000000    -0.064700000000000
 H    2.222880000000000    1.348280000000000    -0.114060000000000
 C    0.175490000000000    4.190400000000000    0.090480000000000
 C    0.127670000000000    5.611430000000000    0.085080000000000
 C    -3.456150000000000    -1.808590000000000    0.128860000000000
 C    -4.564140000000000    -2.707110000000000    0.127640000000000
 C    3.394430000000000    -1.983070000000000    -0.219750000000000
 C    4.502070000000000    -2.877030000000000    -0.213360000000000
 C    -1.117180000000000    6.242170000000000    0.077500000000000
 C    -1.189510000000000    7.632000000000000    0.064410000000000
 H    -2.030180000000000    5.651340000000000    0.079790000000000
 C    -0.016980000000000    8.387359999999999    0.058750000000000
 H    -2.159150000000000    8.121460000000001    0.057590000000000
 C    1.227970000000000    7.755110000000000    0.065810000000000
 C    1.302670000000000    6.362820000000000    0.078900000000000
 H    2.139400000000000    8.346740000000000    0.060060000000000
 H    2.273040000000000    5.872360000000000    0.082380000000000
 C    4.252440000000000    -4.250540000000001    -0.198640000000000
 C    5.314610000000000    -5.149730000000000    -0.169460000000000
 H    3.229840000000000    -4.620520000000000    -0.204530000000000
 C    6.625220000000000    -4.673790000000000    -0.155500000000000
 H    5.116950000000000    -6.217720000000000    -0.154560000000000
 C    6.874820000000000    -3.299950000000000    -0.171320000000000
 C    5.811540000000000    -2.397060000000000    -0.200240000000000
 H    7.897730000000000    -2.933230000000000    -0.157900000000000
 H    6.009820000000000    -1.328100000000000    -0.207300000000000
 C    -4.315700000000000    -4.082170000000000    0.120760000000000
 C    -5.377930000000000    -4.983700000000000    0.105750000000000
 H    -3.293760000000000    -4.454150000000001    0.124030000000000
 C    -6.689040000000000    -4.509870000000000    0.098020000000000
 H    -5.180530000000000    -6.052100000000000    0.098250000000000
 C    -6.938440000000000    -3.136120000000000    0.105990000000000
 C    -5.875190000000000    -2.231340000000000    0.120820000000000
 H    -7.961900000000000    -2.770510000000000    0.098710000000000
 H    -6.075870000000000    -1.163000000000000    0.123970000000000
 B    -0.029940661000000    9.963116120000000    0.099250268000000
 O    -1.188190136000000    10.638162596000001    0.082572794000000
 O    1.118488590000000    10.655733887000000    0.117918598000000
Si    -1.787284133000000    12.110971686999999    -0.082115732000000
Si    1.698461194000000    12.140101333000000    -0.003340389000000
 O    -1.234243887000000    12.986530199999999    1.135301326000000
 O    -1.172125592000000    12.731239298000000    -1.421342510000000
 H    -3.256396952000000    12.094360513000000    -0.120776516000000
 O    1.135692232000000    12.761884265000001    -1.364203736000000
 O    1.074526303000000    12.995351060999999    1.194643658000000
 H    3.167855155000000    12.148649864999999    0.028517646000000
 B    -0.095769577000000    13.381800790000000    1.721526899000000
 H    -0.125892249000000    13.819254630000000    2.817470591000000
 B    -0.006203280000000    13.016468386000000    -2.017953825000000
 H    0.020795215000000    13.187483603000000    -3.185567522000000
 B    7.922819924000001    -5.568584684000000    -0.135688099000000
 O    9.140455680000001    -5.008284665000000    -0.166262323000000
 O    7.830165662000000    -6.906552964000000    -0.121069911000000
Si    10.687809946000000    -5.363374183000000    -0.352833372000000
Si    8.710205026000001    -8.233529032000000    -0.259214443000000
 O    11.102768923999999    -6.323835909000000    0.855422741000000
 O    10.824337499000000    -6.217936868000000    -1.697364200000000
 H    11.517678030000001    -4.151198599000000    -0.397692923000000
 O    9.524380974000000    -8.124734069000001    -1.630547061000000
 O    9.784433304000000    -8.218883766999999    0.924733084000000
 H    7.873486894999999    -9.441276061000000    -0.221050218000000
 B    10.779987026000001    -7.485073858000001    1.441393123000000
 H    11.169803828999999    -7.716049904000000    2.531374196000000
 B    10.380084532000000    -7.333759287000000    -2.292557583000000
 H    10.489093386000000    -7.449497867000000    -3.462180821000000
 B    -7.990815881000000    -5.397681585000000    0.142581715000000
 O    -7.906903640000000    -6.735692050000000    0.128636801000000
 O    -9.205443817000001    -4.829123835000000    0.162041474000000
Si    -8.797227979000001    -8.053569650000000    -0.031749456000000
Si    -10.761619954000000    -5.173832553000000    0.044099070000000
 O    -9.830428073000000    -8.078891024000001    1.187437530000000
 O    -9.657157431000002    -7.890667671000000    -1.369906616000000
 H    -7.965717857000000    -9.264871573000001    -0.069187816000000
 O    -10.967156530000000    -5.990383732000000    -1.314676429000000
 O    -11.122823304000001    -6.165662972000000    1.244814349000000
 H    -11.586599809000001    -3.957823669000000    0.074713739000000
 B    -10.791553899000000    -7.351869461000000    1.773696697000000
 H    -11.136385480000000    -7.618046816000000    2.870786761000000
 B    -10.544104132999999    -7.082128556000000    -1.966786485000000
 H    -10.703137103000000    -7.157399626000000    -3.133979549000000




