%nproc=15
%mem=70GB
%chk=2_Phenyl_Nitrile_Triazine_freq.chk
#P B3LYP/6-311++G(d,p) EmpiricalDispersion=GD3 freq(noraman) SCF=YQC

Restart from 2_Phenyl_Nitrile_Triazine.log

0 1
 C   0.000003  -1.403102   0.000000
 C  -0.000003   1.403102   0.000000
 C  -1.209716  -0.693387   0.000000
 C   1.209716   0.693387   0.000000
 C  -1.209718   0.693381   0.000000
 C   1.209718  -0.693381   0.000000
 H   2.142289  -1.241403   0.000000
 H  -2.142289   1.241403   0.000000
 H   2.142284   1.241413   0.000000
 H  -2.142284  -1.241413   0.000000
 C   0.000011  -2.882529   0.000000
 N   1.184343  -3.519525   0.000000
 C   1.118060  -4.847284   0.000000
 N  -1.184343  -3.519527   0.000000
 C  -1.118067  -4.847267   0.000000
 N   0.000003  -5.578046   0.000000
 H  -2.060701  -5.387519   0.000000
 H   2.060702  -5.387521   0.000000
 C  -0.000011   2.882529   0.000000
 N  -1.184343   3.519525   0.000000
 C  -1.118060   4.847284   0.000000
 N   1.184343   3.519527   0.000000
 C   1.118067   4.847267   0.000000
 N  -0.000003   5.578046   0.000000
 H   2.060701   5.387519   0.000000
 H  -2.060702   5.387521   0.000000






