%nproc=18
%mem=70GB
%chk=HHTP_benzene_freq.chk
#P B3LYP/6-311++G(d,p) EmpiricalDispersion=GD3 freq(noraman) SCF=YQC

Restart from HHTP_benzene.log

0 1
 C   2.489171  -1.415676   0.000000
 C   1.255612  -0.712185   0.000000
 C   1.255636   0.712064   0.000000
 C   2.489201   1.415536   0.000000
 C   3.652062   0.698204   0.000000
 C   3.652046  -0.698365   0.000000
 C  -0.011772  -1.443863   0.000000
 C  -1.245220  -0.731724   0.000000
 C  -1.245187   0.731706   0.000000
 C  -0.011709   1.443787   0.000000
 C  -0.019193   2.863815   0.000000
 C  -1.221802   3.512292   0.000000
 C  -2.431308   2.814083   0.000000
 C  -2.471157   1.448348   0.000000
 C  -2.471228  -1.448302   0.000000
 C  -2.431451  -2.814038   0.000000
 C  -1.221983  -3.512310   0.000000
 C  -0.019340  -2.863895   0.000000
 O  -3.471512   3.716039   0.000000
 B  -2.873749   4.977270   0.000000
 O  -1.482621   4.864136   0.000000
 O  -1.482874  -4.864138   0.000000
 B  -2.874009  -4.977200   0.000000
 O  -3.471704  -3.715939   0.000000
 O   4.953251   1.148137   0.000000
 B   5.746698  -0.000103   0.000000
 O   4.953227  -1.148323   0.000000
 C  -3.641364   6.307240   0.000000
 C  -5.043595   6.318112   0.000000
 C  -5.764959   7.517075   0.000000
 C  -5.052874   8.753416   0.000000
 C  -3.626138   8.751242   0.000000
 C  -2.949091   7.526719   0.000000
 C  -3.641677  -6.307139   0.000000
 C  -2.949437  -7.526639   0.000000
 C  -3.626519  -8.751142   0.000000
 C  -5.053255  -8.753277   0.000000
 C  -5.765305  -7.516916   0.000000
 C  -5.043908  -6.317973   0.000000
 C   7.282293  -0.000110   0.000000
 C   7.992539   1.208991   0.000000
 C   9.391540   1.234572   0.000000
 C   10.106495  -0.000110   0.000000
 C   9.391540  -1.234791   0.000000
 C   7.992539  -1.209210   0.000000
 H  -3.430022   0.953291   0.000000
 H   0.888866  -3.446701   0.000000
 H   2.539832   2.493476   0.000000
 H  -3.430067  -0.953196   0.000000
 H   0.889052   3.446565   0.000000
 H   2.539791  -2.493615   0.000000
 H   7.447386  -2.147498   0.000000
 C   11.530498  -0.000110   0.000000
 H  -1.863935   7.523473   0.000000
 C  -5.764567   9.986819   0.000000
 H  -5.583823   5.376980   0.000000
 H  -5.584110  -5.376826   0.000000
 H  -1.864281  -7.523422   0.000000
 C  -5.764982  -9.986660   0.000000
 H   7.447386   2.147278   0.000000
 C  -7.191525  -9.987493   0.000000
 C  -7.870278  -11.214452   0.000000
 C  -7.166787  -12.415889   0.000000
 C  -5.774563  -12.423803   0.000000
 C  -5.051885  -11.222191   0.000000
 H  -8.955056  -11.219563   0.000000
 H  -7.708695  -13.354974   0.000000
 H  -5.236193  -13.365571   0.000000
 C   12.244221  -1.235279   0.000000
 C   13.646179  -1.209920   0.000000
 C   14.335172  -0.000110   0.000000
 C   13.646179   1.209700   0.000000
 C   12.244221   1.235059   0.000000
 H   14.192792  -2.146928   0.000000
 H   15.419397  -0.000110   0.000000
 H   14.192792   2.146708   0.000000
 C  -5.051435   11.222331   0.000000
 C  -5.774081   12.423962   0.000000
 C  -7.166305   12.416087   0.000000
 C  -7.869829   11.214669   0.000000
 C  -7.191110   9.987691   0.000000
 H  -5.235684   13.365716   0.000000
 H  -7.708187   13.355187   0.000000
 H  -8.954607   11.219811   0.000000
 C  -2.935989  -10.011655   0.000000
 C  -3.615241  -11.188428   0.000000
 H  -1.851118  -10.003894   0.000000
 H  -3.078281  -12.131223   0.000000
 C  -7.881160  -8.726745   0.000000
 C  -7.202197  -7.549803   0.000000
 H  -8.966122  -8.733605   0.000000
 H  -7.738341  -6.606641   0.000000
 C  -7.880780   8.726963   0.000000
 C  -7.201850   7.550002   0.000000
 H  -8.965741   8.733853   0.000000
 H  -7.738020   6.606855   0.000000
 C  -3.614793   11.188528   0.000000
 C  -2.935573   10.011736   0.000000
 H  -3.077807   12.131307   0.000000
 H  -1.850703   10.003945   0.000000
 C   10.138189  -2.462900   0.000000
 C   11.496930  -2.462733   0.000000
 C   11.496930   2.462513   0.000000
 C   10.138189   2.462680   0.000000
 H   9.589250   3.398453   0.000000
 H   12.045139   3.398811   0.000000
 H   9.589249  -3.398672   0.000000
 H   12.045139  -3.399031   0.000000






