%nproc=15
%mem=70GB
%chk=3_Phenyl_Double_CarboxylicAnhydride_Imide.chk
#P B3LYP/6-311++G(d,p) EmpiricalDispersion=GD3 opt SCF=YQC NoSymm

Comment

0 1
 C    0.698500333000000    -1.162038833000000    0.000000000000000
 C    1.458377333000000    -0.000028833000000    0.000000000000000
 C    0.698535333000000    1.161999167000000    0.000000000000000
 C    -0.698496667000000    1.162029167000000    0.000000000000000
 C    -1.458382667000000    0.000029167000000    0.000000000000000
 C    -0.698533667000000    -1.161989833000000    0.000000000000000
 C    2.838461557000000    -0.242905456000000    0.002452522000000
 C    1.765021716000000    -2.236515450000000    0.004694686000000
 N    3.000754936000000    -1.616094629000000    0.007821995000000
 O    1.435363591000000    -3.409478404000000    0.016553678000000
 O    3.636302731000000    0.677882602000000    -0.010873866000000
 C    4.261288834000000    -2.294811565000000    0.018109317000000
 C    4.364659865000000    -3.663056260000000    -0.285500427000000
 H    3.497421448000000    -4.259942451000000    -0.550788722000000
 C    5.597285137000000    -4.329576932000000    -0.273387072000000
 H    5.638987053000000    -5.388740169000000    -0.515876054000000
 C    6.761142588000000    -3.642663715000000    0.045306300000000
 H    7.717336407000000    -4.158434990000000    0.056403362000000
 C    6.690326736000000    -2.289795236000000    0.349730245000000
 H    7.593898026000000    -1.740435057000000    0.602945519000000
 C    5.456163768000000    -1.626182176000000    0.334668267000000
 H    5.473902046000000    -0.571274657000000    0.590794534000000
 C    -1.132431776000000    2.551102096000000    0.002452522000000
 C    1.131801782000000    2.551648626000000    0.004694686000000
 N    -0.000500208000000    3.345280020000000    0.007821995000000
 O    2.320792814000000    2.817763069000000    0.016553678000000
 O    -2.321475177000000    2.816765373000000    -0.010873866000000
 C    -0.000850383000000    4.776923224000000    0.018109317000000
 C    1.154674981000000    5.516882849000001    -0.285500427000000
 H    2.091481647000000    5.036498765000000    -0.550788722000000
 C    1.156824650000000    6.918171630000000    -0.273387072000000
 H    2.069495206000000    7.457243305000000    -0.515876054000000
 C    0.000075635000000    7.616988954000000    0.045306300000000
 H    0.000621720000000    8.703417198000000    0.056403362000000
 C    -1.157353903000000    6.912982656000000    0.349730245000000
 H    -2.069552958000000    7.447894394000001    0.602945519000000
 C    -1.156214488000000    5.511719216000000    0.334668267000000
 H    -2.093330813000000    5.026995055000000    0.590794534000000
 C    -1.764263723000000    -2.236782715000000    0.002452522000000
 C    -2.838640622000000    -0.243677555000000    0.004694686000000
 N    -3.000294550000000    -1.616931572000000    0.007821995000000
 O    -3.636842495000000    0.676860516000000    0.016553678000000
 O    -1.434198414000000    -3.409581965000000    -0.010873866000000
 C    -4.260504874000000    -2.296249115000000    0.018109317000000
 C    -5.459993735999999    -1.629911675000000    -0.285500427000000
 H    -5.481392668000000    -0.577334987000000    -0.550788722000000
 C    -6.694666565000000    -2.292631733000000    -0.273387072000000
 H    -7.602116812000000    -1.744818022000000    -0.515876054000000
 C    -6.761254087000000    -3.642439140000000    0.045306300000000
 H    -7.717972437000000    -4.157236797000000    0.056403362000000
 C    -5.592514349000000    -4.327505143000000    0.349730245000000
 H    -5.630791015000000    -5.384279755000000    0.602945519000000
 C    -4.359423799000000    -3.661901491000000    0.334668267000000
 H    -3.488225195000000    -4.257012837000000    0.590794534000000




