%nproc=15
%mem=70GB
%chk=2_Phenyl_PrimaryAmine_Imide_freq.chk
#P B3LYP/6-311++G(d,p) EmpiricalDispersion=GD3 freq(noraman) SCF=YQC NoSymm

Restart from 2_Phenyl_PrimaryAmine_Imide.log

0 1
 C   0.001528  -1.392162  -0.004569
 C  -0.001528   1.392162   0.004569
 C  -1.130712  -0.697156   0.423352
 C   1.130712   0.697156  -0.423352
 C  -1.132225   0.691853   0.427966
 C   1.132225  -0.691853  -0.427966
 H   2.013162  -1.229141  -0.749364
 H  -2.013162   1.229141   0.749364
 H   2.010487   1.238518  -0.741111
 H  -2.010487  -1.238518   0.741111
 C  -0.639240  -5.027437  -0.278709
 C  -1.310357  -6.206523  -0.558163
 H  -2.313107  -6.191541  -0.967410
 C  -0.640596  -7.404924  -0.289292
 H  -1.131175  -8.349659  -0.493264
 C   0.654686  -7.405509   0.240545
 H   1.146928  -8.350687   0.438366
 C   1.322323  -6.207706   0.517245
 H   2.325040  -6.193621   0.926605
 C   0.649126  -5.028010   0.245469
 C   1.088076  -3.617436   0.430195
 C  -1.080707  -3.616467  -0.454170
 N   0.002954  -2.817035  -0.009349
 O  -2.132168  -3.207690  -0.880988
 O   2.138720  -3.209655   0.859979
 C   0.639240   5.027437   0.278709
 C   1.310357   6.206523   0.558163
 H   2.313107   6.191541   0.967410
 C   0.640596   7.404924   0.289292
 H   1.131175   8.349659   0.493264
 C  -0.654686   7.405509  -0.240545
 H  -1.146928   8.350687  -0.438366
 C  -1.322323   6.207706  -0.517245
 H  -2.325040   6.193621  -0.926605
 C  -0.649126   5.028010  -0.245469
 C  -1.088076   3.617436  -0.430195
 C   1.080707   3.616467   0.454170
 N  -0.002954   2.817035   0.009349
 O   2.132168   3.207690   0.880988
 O  -2.138720   3.209655  -0.859979






