%nproc=15
%mem=70GB
%chk=ExtendedTrisPhenyl_Aldehyde_Benzobisoxazole_freq.chk
#P B3LYP/6-311++G(d,p) EmpiricalDispersion=GD3 freq(noraman) SCF=YQC

Restart from ExtendedTrisPhenyl_Aldehyde_Benzobisoxazole.log

0 1
 C  -2.424047  -1.459876  -0.000129
 C  -1.205573  -0.726576  -0.000122
 C   0.025394  -1.400194  -0.000144
 H   0.044992  -2.482146  -0.000151
 C   1.231094  -0.682346  -0.000158
 C   2.475456  -1.370801  -0.000198
 C   1.198961   0.720516  -0.000138
 H   2.126163   1.278457  -0.000141
 C  -0.025553   1.405778  -0.000103
 C  -0.051461   2.827658  -0.000071
 C  -1.224392   0.676520  -0.000097
 H  -2.171197   1.200506  -0.000072
 C  -0.073480   4.037606  -0.000041
 C  -0.100324   5.456873   0.000003
 C   3.534418  -1.956517  -0.000232
 C   4.777174  -2.642510  -0.000171
 C  -3.461003  -2.083730  -0.000131
 C  -4.676904  -2.816270  -0.000098
 C   1.096599   6.196940  -0.000286
 C   1.069342   7.583032  -0.000250
 H   2.043897   5.671976  -0.000533
 C  -0.154948   8.267668   0.000079
 H   1.995732   8.142856  -0.000475
 C  -1.352969   7.535459   0.000373
 C  -1.326526   6.151602   0.000335
 H  -2.294850   8.069407   0.000632
 H  -2.252589   5.589961   0.000563
 C  -4.665894  -4.225562  -0.000098
 C  -5.851362  -4.940003  -0.000062
 H  -3.716630  -4.747031  -0.000138
 C  -7.084267  -4.268184  -0.000024
 H  -5.843187  -6.022672  -0.000058
 C  -7.103058  -2.865590  -0.000027
 C  -5.916066  -2.149332  -0.000061
 H  -8.050912  -2.342931   0.000004
 H  -5.934714  -1.066458  -0.000064
 C   4.820100  -4.049097   0.000400
 C   6.034340  -4.718143   0.000441
 H   3.892003  -4.607307   0.000815
 C   7.239156  -3.999788  -0.000085
 H   6.056306  -5.800326   0.000885
 C   7.203578  -2.596175  -0.000653
 C   5.991688  -1.927545  -0.000695
 H   8.136753  -2.047150  -0.001056
 H   5.967951  -0.844739  -0.001132
 H   1.383481   14.983348  -0.000468
 C   0.797546   14.071800  -0.000226
 C  -0.605906   14.157265   0.000387
 H  -1.071883   15.135719   0.000606
 C  -1.407372   13.018780   0.000718
 H  -2.488445   13.079584   0.001192
 C  -0.761337   11.781290   0.000419
 N  -1.257958   10.482596   0.000608
 C   0.638266   11.724469  -0.000192
 O   0.996125   10.401254  -0.000378
 C   1.455701   12.840879  -0.000533
 H   2.535134   12.762220  -0.001007
 C  -0.206445   9.722175   0.000129
 H  -13.670106  -6.291442  -0.000138
 C  -12.587733  -6.343481  -0.000067
 C  -11.960459  -7.601856   0.000153
 H  -12.575152  -8.494414   0.000245
 C  -10.573817  -7.727198   0.000254
 H  -10.086283  -8.694010   0.000424
 C  -9.824721  -6.549231   0.000126
 N  -8.451630  -6.330444   0.000186
 C  -10.474888  -5.308503  -0.000094
 O  -9.507546  -4.337317  -0.000168
 C  -11.850388  -5.158299  -0.000194
 H  -12.321638  -4.183986  -0.000362
 C  -8.318404  -5.039639   0.000010
 H   12.287539  -8.688188   0.000706
 C   11.790741  -7.725156   0.000483
 C   12.566064  -6.552185   0.000072
 H   13.646449  -6.637483  -0.000016
 C   11.980400  -5.289059  -0.000225
 H   12.573279  -4.383018  -0.000540
 C   10.585668  -5.230286  -0.000097
 N   9.708896  -4.151162  -0.000302
 C   9.837078  -6.414232   0.000312
 O   8.512085  -6.062999   0.000354
 C   10.395639  -7.680162   0.000614
 H   9.788111  -8.575859   0.000931
 C   8.524781  -4.682001  -0.000036






