%nproc=15
%mem=70GB
%chk=TP_Catechol_BoronateEster_freq.chk
#P B3LYP/6-311++G(d,p) EmpiricalDispersion=GD3 freq(noraman) SCF=YQC

Restart from TP_Catechol_BoronateEster.log

0 1
 C  -1.442924  -0.057623   0.000005
 C   0.771412  -1.220693   0.000005
 C   0.671501   1.278510   0.000005
 C  -0.651263  -1.288807   0.000005
 C  -0.790584   1.208517   0.000005
 C   1.441825   0.080484   0.000005
 C  -3.566934   1.052417   0.000004
 C   0.872062  -3.615158   0.000004
 C   2.694892   2.562852   0.000004
 C  -0.522641  -3.681937   0.000004
 C  -2.927437   2.293667   0.000004
 C   3.450059   1.388377   0.000004
 H  -3.399991  -1.053033   0.000003
 H   2.611980  -2.417851   0.000003
 H   0.788087   3.471082   0.000003
 H  -2.369006  -2.656395   0.000003
 H  -1.116129   3.379932   0.000003
 H   3.485045  -0.723413   0.000003
 C  -2.861674  -0.117856   0.000004
 C   1.532935  -2.419253   0.000004
 C   1.328767   2.537267   0.000004
 C  -1.294770  -2.554649   0.000004
 C  -1.565111   2.398730   0.000004
 C   2.859843   0.156065   0.000004
 B  -5.109330   2.632403   0.000010
 C  -6.474592   3.335726   0.000001
 C  -7.665654   2.590237  -0.000003
 C  -6.559161   4.738311  -0.000002
 C  -8.903511   3.226608  -0.000009
 C  -7.795996   5.376668  -0.000008
 C  -8.969002   4.620619  -0.000012
 O  -4.929749   1.248259   0.000002
 O  -3.878018   3.289660   0.000002
 H  -9.815874   2.640749  -0.000012
 H  -7.848725   6.459653  -0.000010
 H  -5.647353   5.325588   0.000001
 H  -7.614388   1.506882  -0.000000
 H  -9.933148   5.117257  -0.000017
 B   0.274892  -5.740910   0.000010
 C   0.348364  -7.274933   0.000001
 C   1.589490  -7.933712  -0.000003
 C  -0.824042  -8.049438  -0.000003
 C   1.657278  -9.323916  -0.000009
 C  -0.758480  -9.439752  -0.000008
 C   0.482763  -10.077612  -0.000012
 O   1.383825  -4.893328   0.000002
 O  -0.909934  -5.003144   0.000002
 H   2.620819  -9.821136  -0.000012
 H  -1.670021  -10.026889  -0.000010
 H  -1.788537  -7.553417   0.000001
 H   2.502084  -7.347661  -0.000000
 H   0.534709  -11.160908  -0.000017
 B   4.834432   3.108520   0.000010
 C   6.126212   3.939135   0.000001
 C   6.076231   5.343377  -0.000003
 C   7.383115   3.310988  -0.000003
 C   7.246329   6.097123  -0.000009
 C   8.554422   4.062856  -0.000008
 C   8.486271   5.456740  -0.000012
 O   3.545963   3.645127   0.000002
 O   4.787916   1.713549   0.000002
 H   7.195222   7.180187  -0.000012
 H   9.518642   3.566956  -0.000010
 H   7.435714   2.227697   0.000001
 H   5.112424   5.840732  -0.000000
 H   9.398489   6.043328  -0.000017






