%nproc=15
%mem=70GB
%chk=3_Phenyl_PrimaryAmine_Imine.chk
#P B3LYP/6-311++G(d,p) EmpiricalDispersion=GD3 opt SCF=YQC

Comment

0 1
 C    1.212954000000000    0.700272000000000    0.000000000000000
 C    1.208877000000000    -0.698223000000000    0.000000000000000
 C    -0.000137000000000    -1.400767000000000    0.000000000000000
 C    -1.209188000000000    -0.698053000000000    0.000000000000000
 C    -1.213163000000000    0.700261000000000    0.000000000000000
 C    0.000000000000000    1.395989000000000    0.000000000000000
 H    -2.145136000000000    -1.238581000000000    0.000000000000000
 H    -0.000098000000000    2.476797000000000    0.000000000000000
 H    2.144938000000000    -1.238545000000000    0.000000000000000
 N    2.402061412000000    1.438446057000000    -0.054107821000000
 C    3.372781131000000    1.154589740000000    0.725355930000000
 C    4.666767955000000    1.843611644000000    0.671430128000000
 C    5.670043506000000    1.487709958000000    1.583014036000000
 C    6.909811669000000    2.121796542000000    1.555015828000000
 C    7.157568038000000    3.119214615000000    0.613948419000000
 C    6.161942612000000    3.481028904000000    -0.298939494000000
 C    4.925791807000000    2.849796368000000    -0.273313350000000
 H    3.278578071000000    0.378073862000000    1.497481739000000
 H    5.475840193000000    0.711018756000000    2.316067855000000
 H    7.679115667000000    1.839051399000000    2.264400793000000
 H    8.121591346000001    3.614813492000000    0.589545650000000
 H    6.356161368000000    4.257274970000000    -1.030529967000000
 H    4.145017750000000    3.118977651000000    -0.974058821000000
 N    -2.447070287000000    1.360829075000000    -0.054107821000000
 C    -2.686716544000000    2.343397573000000    0.725355930000000
 C    -3.930509816000000    3.119368822000000    0.671430128000000
 C    -4.124048266000000    4.166159494000000    1.583014036000000
 C    -5.293154582000000    4.922652268000000    1.555015828000000
 C    -6.280789420000000    4.638392778000000    0.613948419000000
 C    -6.096196919000000    3.595269978000000    -0.298939494000000
 C    -4.931371158000000    2.840482411000000    -0.273313350000000
 H    -1.967167866000000    2.650156152000000    1.497481739000000
 H    -3.354337662000000    4.386408753000000    2.316067855000000
 H    -5.433035127000000    5.730245538000000    2.264400793000000
 H    -7.192069906000000    5.225357053000000    0.589545650000000
 H    -6.865529773000000    3.375256704000000    -1.030529967000000
 H    -4.774008572000000    2.029739721000000    -0.974058821000000
 N    0.044473594000000    -2.799654869000000    -0.054107821000000
 C    -0.686769581000000    -3.498335483000000    0.725355930000000
 C    -0.737171067000000    -4.963467824000000    0.671430128000000
 C    -1.547084644000000    -5.654313566000000    1.583014036000000
 C    -1.617946161000000    -7.045021853000000    1.555015828000000
 C    -0.878092670000000    -7.758354064000000    0.613948419000000
 C    -0.066884467000000    -7.077089931000000    -0.298939494000000
 C    0.004639680000000    -5.690941446000000    -0.273313350000000
 H    -1.312112511000000    -3.028444702000000    1.497481739000000
 H    -2.122572268000000    -5.097736397000000    2.316067855000000
 H    -2.247505102000000    -7.569835150000001    2.264400793000000
 H    -0.930990707000000    -8.841017900000001    0.589545650000000
 H    0.508209953000000    -7.633457873999999    -1.030529967000000
 H    0.628188356000000    -5.149412370000000    -0.974058821000000




