%nproc=15
%mem=70GB
%chk=3_Phenyl_BoronicAcid_BoronateEster.chk
#P B3LYP/6-311++G(d,p) EmpiricalDispersion=GD3 opt SCF=YQC

Comment

0 1
 C    1.212954000000000    0.700272000000000    0.000000000000000
 C    1.208877000000000    -0.698223000000000    0.000000000000000
 C    -0.000137000000000    -1.400767000000000    0.000000000000000
 C    -1.209188000000000    -0.698053000000000    0.000000000000000
 C    -1.213163000000000    0.700261000000000    0.000000000000000
 C    0.000000000000000    1.395989000000000    0.000000000000000
 H    -2.145136000000000    -1.238581000000000    0.000000000000000
 H    -0.000098000000000    2.476797000000000    0.000000000000000
 H    2.144938000000000    -1.238545000000000    0.000000000000000
 B    2.545382611000000    1.469511948000000    -0.000000000000000
 O    3.803870409000000    0.872512565000000    -0.000000000000000
 O    2.657677441000000    2.857882172000000    -0.000000000000000
 C    4.707343989000000    1.912936597000000    -0.000000000000000
 C    4.010462279000000    3.120039922000000    -0.000000000000000
 C    6.087918835000000    1.863744649000000    -0.000000000000000
 C    4.658208450000000    4.340216814000000    -0.000000000000000
 C    6.757624424000000    3.094124606000000    -0.000000000000000
 C    6.058600806000001    4.304938037000000    -0.000000000000000
 H    6.617671877000000    0.919816041000000    -0.000000000000000
 H    4.105668722000000    5.270989118000000    -0.000000000000000
 H    7.841055661000001    3.105406404000000    -0.000000000000000
 H    6.610130912999999    5.237550123000000    -0.000000000000000
 B    -2.545647244000000    1.469404575000000    0.000000000000000
 O    -2.658034431000000    2.857773734000000    0.000000000000000
 O    -3.804089777000000    0.872324682000000    0.000000000000000
 C    -4.010835059000000    3.119836970000000    0.000000000000000
 C    -4.707637307000000    1.912687774000000    0.000000000000000
 C    -4.658661549000000    4.339971221000000    0.000000000000000
 C    -6.088208911000000    1.863404947000000    0.000000000000000
 C    -6.059050579000000    4.304601991999999    0.000000000000000
 C    -6.757994492000000    3.093742549000000    0.000000000000000
 H    -4.106179128000000    5.270778761000000    0.000000000000000
 H    -6.617902781000000    0.919444335000000    0.000000000000000
 H    -6.610643943000000    5.237176538000000    0.000000000000000
 H    -7.841426603000000    3.104950795000000    0.000000000000000
 B    -0.000294455000000    -2.939303992000000    -0.000000000000000
 O    -1.146619014000000    -3.730593955000000    0.000000000000000
 O    1.145857974000000    -3.730832019000000    -0.000000000000000
 C    -0.697427562000000    -5.033273393000000    0.000000000000000
 C    0.696395430000000    -5.033420567000000    -0.000000000000000
 C    -1.430411208000000    -6.204231003000000    0.000000000000000
 C    1.429131776000000    -6.204532944000001    -0.000000000000000
 C    -0.699820409000000    -7.399462154000000    0.000000000000000
 C    0.698286583000000    -7.399609780000000    -0.000000000000000
 H    -2.512752813000000    -6.190958718000000    0.000000000000000
 H    2.511475159000000    -6.191493229000000    -0.000000000000000
 H    -1.231842077000000    -8.343338982000001    0.000000000000000
 H    1.230110910000000    -8.343597941000001    -0.000000000000000




