%nproc=15
%mem=70GB
%chk=BiPhenyl_Aldehyde_Hydrazone_freq.chk
#P B3LYP/6-311++G(d,p) EmpiricalDispersion=GD3 freq(noraman) SCF=YQC NoSymm

Restart from BiPhenyl_Aldehyde_Hydrazone.log

0 1
 C   0.023203   3.568613  -0.128499
 C   1.159931   2.845548  -0.527994
 C   1.145259   1.460759  -0.527717
 C   0.002975   0.739884  -0.132403
 C  -1.128358   1.467232   0.263178
 C  -1.117943   2.856966   0.265536
 C  -0.002974  -0.739885  -0.132404
 C  -1.145258  -1.460760  -0.527720
 C  -1.159929  -2.845549  -0.527998
 C  -0.023202  -3.568614  -0.128502
 C   1.117944  -2.856968   0.265535
 C   1.128359  -1.467233   0.263178
 H  -2.042761  -3.387714  -0.844001
 H  -2.003415   3.396646   0.586755
 H   2.003416  -3.396648   0.586754
 H   2.042762   3.387713  -0.843996
 H  -2.023792  -0.922421  -0.864315
 H  -2.014716   0.940683   0.597252
 H   2.023794   0.922420  -0.864312
 H   2.014716  -0.940685   0.597254
 H  -0.764165   11.657593  -1.313015
 C   0.197113   11.261306  -1.006382
 C   1.213022   12.125140  -0.601256
 H   1.038526   13.194924  -0.579475
 C   2.458531   11.611582  -0.236751
 H   3.253211   12.281883   0.070310
 C   2.685732   10.240060  -0.272400
 H   3.651633   9.825211  -0.011458
 C   1.663300   9.364679  -0.654943
 C   1.986602   7.897481  -0.681752
 C   0.419114   9.885767  -1.031235
 H  -0.368780   9.229661  -1.384714
 O   3.105007   7.476682  -0.889485
 N   0.896782   7.073772  -0.429876
 H   0.031082   7.488331  -0.096011
 N   1.018316   5.724995  -0.465078
 C   0.001829   5.029778  -0.113947
 H  -0.933042   5.505807   0.213076
 H   0.764161  -11.657600  -1.313013
 C  -0.197116  -11.261311  -1.006379
 C  -1.213026  -12.125142  -0.601248
 H  -1.038531  -13.194926  -0.579463
 C  -2.458533  -11.611580  -0.236744
 H  -3.253214  -12.281879   0.070321
 C  -2.685732  -10.240058  -0.272398
 H  -3.651633  -9.825207  -0.011457
 C  -1.663300  -9.364680  -0.654946
 C  -1.986600  -7.897482  -0.681761
 C  -0.419116  -9.885771  -1.031238
 H   0.368779  -9.229668  -1.384721
 O  -3.105006  -7.476683  -0.889490
 N  -0.896781  -7.073773  -0.429883
 H  -0.031081  -7.488332  -0.096018
 N  -1.018314  -5.724996  -0.465084
 C  -0.001828  -5.029779  -0.113951
 H   0.933043  -5.505808   0.213072






