%nproc=15
%mem=70GB
%chk=TrisPhenyl_Aldehyde_Azine_freq.chk
#P B3LYP/6-311++G(d,p) EmpiricalDispersion=GD3 freq(noraman) SCF=YQC

Restart from TrisPhenyl_Aldehyde_Azine.log

0 1
 C   1.734058   5.447702  -0.526158
 C   2.389325   4.484859  -1.306997
 C   1.969891   3.160068  -1.307419
 C   0.879507   2.752449  -0.526879
 C   0.224573   3.721082   0.255013
 C   0.640734   5.042295   0.258477
 C   0.428016   1.339973  -0.525315
 C  -0.936242   1.027369  -0.525114
 C  -1.377560  -0.300835  -0.525009
 C  -0.424727  -1.326043  -0.523988
 C   0.946195  -1.044084  -0.524280
 C   1.357610   0.293701  -0.524418
 C   1.943879  -2.141172  -0.524924
 C   3.110190  -2.057325   0.256883
 C   4.046877  -3.077804   0.260745
 C   3.851871  -4.227850  -0.523297
 C   2.690257  -4.315039  -1.303810
 C   1.752168  -3.289855  -1.304737
 C  -2.826587  -0.615960  -0.526435
 C  -3.338161  -1.666950   0.256023
 C  -4.690490  -1.966957   0.259597
 C  -5.588115  -1.223107  -0.525460
 C  -5.081730  -0.174700  -1.306842
 C  -3.724657   0.124203  -1.307433
 H  -1.664939   1.829071  -0.524513
 H   2.416248   0.523961  -0.523209
 H  -0.754627  -2.357981  -0.522391
 H   3.266414  -1.189158   0.887024
 H   0.874325  -3.369114  -1.935492
 H   4.936523  -3.007701   0.874078
 H   2.526936  -5.191394  -1.922741
 H   0.136003   5.778051   0.872056
 H  -0.605233   3.422870   0.885651
 H   3.229745   4.781063  -1.926437
 H   2.476794   2.439052  -1.938238
 H  -3.353554   0.923268  -1.938711
 H  -5.758356   0.404831  -1.926573
 H  -5.075438  -2.771573   0.873581
 H  -2.665110  -2.236172   0.887039
 C   2.205031   6.829305  -0.552288
 N   1.651575   7.758057   0.141709
 H   3.061561   7.064554  -1.190822
 N   2.260704   8.993682  -0.034398
 C   1.709927   9.921624   0.662155
 C   2.181458   11.304952   0.638064
 H   0.855206   9.685425   1.302817
 C   1.525201   12.260383   1.428172
 C   1.944858   13.588123   1.431884
 H   0.682429   11.957766   2.041291
 C   3.027012   13.976963   0.644781
 H   1.429148   14.316690   2.046985
 C   3.687946   13.032218  -0.146345
 H   3.356152   15.010010   0.645577
 C   3.272051   11.707882  -0.152240
 H   4.529982   13.334851  -0.758737
 H   3.777079   10.968607  -0.761262
 C   4.813750  -5.325775  -0.549364
 N   5.895556  -5.309250   0.143424
 H   4.589361  -6.185882  -1.186999
 N   6.661985  -6.453981  -0.032578
 C   7.742418  -6.438645   0.661726
 C   8.705961  -7.537510   0.637368
 H   7.965510  -5.579074   1.300596
 C   9.863150  -7.444041   1.424749
 C   10.804438  -8.470188   1.428225
 H   10.022732  -6.561585   2.035944
 C   10.599760  -9.603447   0.643615
 H   11.694514  -8.385651   2.041195
 C   9.449491  -9.706309  -0.144774
 H   11.330825  -10.404113   0.644243
 C   8.509281  -8.685112  -0.150440
 H   9.290277  -10.588154  -0.755212
 H   7.615255  -8.755053  -0.757326
 C  -7.020155  -1.505781  -0.551501
 N  -7.547930  -2.449345   0.142524
 H  -7.652054  -0.881520  -1.190024
 N  -8.922619  -2.539218  -0.033475
 C  -9.450952  -3.480752   0.662218
 C  -10.884804  -3.763627   0.638122
 H  -8.819079  -4.103698   1.302108
 C  -11.384162  -4.810772   1.426741
 C  -12.743944  -5.110772   1.430452
 H  -10.700676  -5.390539   2.038682
 C  -13.621812  -4.366474   0.644863
 H  -13.117086  -5.922544   2.044379
 C  -13.134048  -3.320610  -0.144764
 H  -14.681106  -4.597596   0.645689
 C  -11.779091  -3.019071  -0.150677
 H  -13.817185  -2.741472  -0.755957
 H  -11.391339  -2.211195  -0.758518






