%nproc=15
%mem=70GB
%chk=3_Phenyl_Aldehyde_Benzobisoxazole.chk
#P B3LYP/6-311++G(d,p) EmpiricalDispersion=GD3 opt SCF=YQC

Comment

0 1
 C    1.212954000000000    0.700272000000000    0.000000000000000
 C    1.208877000000000    -0.698223000000000    0.000000000000000
 C    -0.000137000000000    -1.400767000000000    0.000000000000000
 C    -1.209188000000000    -0.698053000000000    0.000000000000000
 C    -1.213163000000000    0.700261000000000    0.000000000000000
 C    0.000000000000000    1.395989000000000    0.000000000000000
 H    -2.145136000000000    -1.238581000000000    0.000000000000000
 H    -0.000098000000000    2.476797000000000    0.000000000000000
 H    2.144938000000000    -1.238545000000000    0.000000000000000
 H    6.537212849000000    5.122005868000000    -0.231567383000000
 C    5.976014140000000    4.190597584000000    -0.178498243000000
 C    6.668569966000000    2.973848386999999    -0.121703714000000
 H    7.756891829000000    2.974223637000000    -0.131560514000000
 C    5.982820766000000    1.751170742000000    -0.052972897000000
 H    6.514784256000000    0.807493992000000    -0.009535152000000
 C    4.582490371000000    1.779459034000000    -0.044510818000000
 N    3.659303761000000    0.767166669000000    0.011446804000000
 C    3.936492369000000    3.002727667000000    -0.102752338000000
 O    2.593682492000000    2.767129352000000    -0.085302203000000
 C    4.576194920000000    4.234297512000000    -0.169472350000000
 H    4.023535876000000    5.163979660000000    -0.213531876000000
 C    2.497016879000000    1.397890859000000    -0.018838811000000
 H    -7.704902692000000    3.099589752000000    -0.231567383000000
 C    -6.617677770000000    3.079406788000000    -0.178498243000000
 C    -5.910359133000000    4.287633805000000    -0.121703714000000
 H    -6.454953579000000    5.229897838000000    -0.131560514000000
 C    -4.508616653000000    4.305257858999999    -0.052972897000000
 H    -3.957457777000000    5.237853621000000    -0.009535152000000
 C    -3.832808523000000    3.078469852000000    -0.044510818000000
 N    -2.494510532000000    2.785267127000000    0.011446804000000
 C    -4.569056337000000    1.907300043000000    -0.102752338000000
 O    -3.693496899000000    0.862292578000000    -0.085302203000000
 C    -5.955471259000000    1.845354086000000    -0.169472350000000
 H    -6.484161420000000    0.901835337000000    -0.213531876000000
 C    -2.459437997000000    1.463339097000000    -0.018838811000000
 H    1.166515466000000    -8.222671772000000    -0.231567383000000
 C    0.640568592000000    -7.270912733000000    -0.178498243000000
 C    -0.759444335000000    -7.262195795000000    -0.121703714000000
 H    -1.303356564000000    -8.204853796000000    -0.131560514000000
 C    -1.475342118000000    -6.056922817000000    -0.052972897000000
 H    -2.558570996000000    -6.045690692000000    -0.009535152000000
 C    -0.750581564000000    -4.858403905000000    -0.044510818000000
 N    -1.165553520000000    -3.552721085000000    0.011446804000000
 C    0.631794922000000    -4.910699391000000    -0.102752338000000
 O    1.099269357000000    -3.630030588000000    -0.085302203000000
 C    1.378419766000000    -6.080543388000000    -0.169472350000000
 H    2.459878758000000    -6.066855194000000    -0.213531876000000
 C    -0.038130984000000    -2.861604433000000    -0.018838811000000




