%nproc=15
%mem=70GB
%chk=TetraPhenylSilane_Aldehyde_Hydrazone_freq.chk
#P B3LYP/6-311++G(d,p) EmpiricalDispersion=GD3 freq(noraman) SCF=YQC

Restart from TetraPhenylSilane_Aldehyde_Hydrazone_pbe_b3lyp.log

0 1
Si  -0.000000   0.000013  -0.002585
 C   3.769919  -0.775788   2.722524
 C   0.781531   3.770058  -2.725351
 C  -3.769436   0.775485   2.723286
 C  -0.782013  -3.769715  -2.725652
 C   3.877207   0.036307   1.582009
 C  -0.031039   3.877998  -1.585219
 C  -3.876922  -0.036487   1.582703
 C   0.030743  -3.877793  -1.585666
 C   2.762902   0.280165   0.791414
 C  -0.277451   2.763533  -0.795637
 C  -2.762757  -0.280249   0.791880
 C   0.277295  -2.763419  -0.795997
 C   1.505721  -0.269557   1.101353
 C   0.270348   1.505666  -1.106140
 C  -1.505526   0.269452   1.101651
 C  -0.270543  -1.505512  -1.106268
 C   1.408449  -1.070678   2.249476
 C   1.071341   1.407573  -2.254296
 C  -1.408054   1.070451   2.249843
 C  -1.071724  -1.407281  -2.254282
 C   2.520943  -1.323719   3.046190
 C   1.326695   2.520158  -3.050126
 C  -2.520407   1.323395   3.046785
 C  -1.327218  -2.519773  -3.050197
 H   4.839322   0.466995   1.332181
 H  -0.461550   4.840327  -1.335903
 H  -4.839078  -0.467159   1.333003
 H   0.461285  -4.840154  -1.336529
 H   2.870423   0.916232  -0.080834
 H  -0.914419   2.871423   0.075924
 H  -2.870430  -0.916223  -0.080417
 H   0.914405  -2.871414   0.075447
 H   0.451568  -1.497671   2.532972
 H   1.496481   0.450072  -2.538466
 H  -0.451126   1.497422   2.533213
 H  -1.496902  -0.449743  -2.538273
 H   2.420319  -1.949364   3.928005
 H   1.951769   2.418792  -3.932250
 H  -2.419630   1.948945   3.928649
 H  -1.952435  -2.418301  -3.932206
 H   9.710238  -1.380645   8.364184
 C   9.982416  -1.321848   7.316530
 C   11.294160  -1.574329   6.919152
 H   12.041883  -1.843263   7.656670
 C   11.645790  -1.467858   5.572708
 H   12.667244  -1.655512   5.262044
 C   10.689087  -1.115037   4.627131
 H   10.947989  -1.009234   3.580753
 C   9.364804  -0.883410   5.015196
 C   8.390035  -0.493983   3.940221
 C   9.019541  -0.980185   6.368834
 H   8.012056  -0.750587   6.698194
 O   8.723487   0.099083   2.936454
 N   7.082162  -0.889829   4.193004
 H   6.899203  -1.527456   4.962913
 N   6.080212  -0.574290   3.338294
 C   4.921106  -1.061580   3.579027
 H   4.742646  -1.717466   4.442346
 H   3.651699   10.314724  -6.772575
 C   2.633024   10.330122  -6.402222
 C   1.759283   11.340716  -6.799231
 H   2.093757   12.106056  -7.490416
 C   0.458103   11.372971  -6.295421
 H  -0.220789   12.162894  -6.595822
 C   0.030972   10.396478  -5.402169
 H  -0.968841   10.416569  -4.986088
 C   0.894878   9.365124  -5.017536
 C   0.367949   8.353973  -4.039121
 C   2.203043   9.343683  -5.516736
 H   2.905821   8.585822  -5.188169
 O  -0.484743   8.618328  -3.218432
 N   0.930975   7.090678  -4.173545
 H   1.511527   6.891944  -4.983630
 N   0.595873   6.084112  -3.331886
 C   1.070045   4.921296  -3.580843
 H   1.717778   4.739961  -4.449691
 H  -9.708685   1.379624   8.366133
 C  -9.981065   1.320938   7.318525
 C  -11.292891   1.573438   6.921430
 H  -12.040477   1.842275   7.659123
 C  -11.644780   1.467110   5.575042
 H  -12.666298   1.654779   5.264597
 C  -10.688253   1.114414   4.629240
 H  -10.947357   1.008723   3.582901
 C  -9.363891   0.882770   5.017022
 C  -8.389322   0.493483   3.941815
 C  -9.018367   0.979400   6.370604
 H  -8.010814   0.749785   6.699743
 O  -8.722955  -0.099480   2.938048
 N  -7.081407   0.889321   4.194393
 H  -6.898312   1.526865   4.964340
 N  -6.079613   0.573892   3.339460
 C  -4.920470   1.061171   3.580030
 H  -4.741858   1.716964   4.443389
 H  -3.652909  -10.313878  -6.773165
 C  -2.634175  -10.329333  -6.402977
 C  -1.760511  -11.339893  -6.800242
 H  -2.095107  -12.105149  -7.491462
 C  -0.459251  -11.372224  -6.296644
 H   0.219582  -12.162121  -6.597244
 C  -0.031963  -10.395839  -5.403348
 H   0.967916  -10.415991  -4.987430
 C  -0.895794  -9.364518  -5.018459
 C  -0.368695  -8.353485  -4.040013
 C  -2.204039  -9.343001  -5.517446
 H  -2.906754  -8.585169  -5.188680
 O   0.484124  -8.617945  -3.219490
 N  -0.931727  -7.090168  -4.174201
 H  -1.512407  -6.891335  -4.984170
 N  -0.596478  -6.083702  -3.332481
 C  -1.070678  -4.920853  -3.581228
 H  -1.718550  -4.739412  -4.449951






