%nproc=15
%mem=70GB
%chk=2_Phenyl_H_Cyanohydrine_Benzobisoxazole.chk
#P B3LYP/6-311++G(d,p) EmpiricalDispersion=GD3 opt SCF=YQC

Comment

0 1
 C    0.698355000000000    -1.162038000000000    0.000000000000000
 C    1.458232000000000    -0.000028000000000    0.000000000000000
 C    0.698390000000000    1.162000000000000    0.000000000000000
 C    -0.698642000000000    1.162030000000000    0.000000000000000
 C    -1.458528000000000    0.000030000000000    0.000000000000000
 C    -0.698679000000000    -1.161989000000000    0.000000000000000
 H    2.539446000000000    -0.000040000000000    0.000000000000000
 H    -2.539742000000000    0.000043000000000    0.000000000000000
 N    -1.111221569000000    2.490749234000000    0.064989441000000
 O    1.154225934000000    2.420466315000000    -0.022003196000000
 C    0.013845003000000    3.185519343000000    0.030920069000000
 C    1.250402284000000    5.364861497000000    -0.032420345000000
 C    1.248911441000000    6.762901492000000    -0.038546109000000
 H    2.203360422000000    4.842235643000000    -0.081511553000000
 C    0.044192124000000    7.460303117000000    0.021256462000000
 H    2.189226859000000    7.305893446000000    -0.091450314000000
 C    -1.159553633000000    6.762781445000000    0.088568927000000
 H    0.043330401000000    8.547319791000000    0.014871726000000
 C    -1.157332981000000    5.365561359000000    0.094243010000000
 H    -2.101491755000000    7.303278624000000    0.135334292000000
 H    -2.106152827000000    4.833265317000000    0.145564429000000
 C    0.046565513000000    4.646604888000000    0.032608119000000
 N    1.111221569000000    -2.490749234000000    0.064989441000000
 O    -1.154225934000000    -2.420466315000000    -0.022003196000000
 C    -0.013845003000000    -3.185519343000000    0.030920069000000
 C    -1.250402284000000    -5.364861497000000    -0.032420345000000
 C    -1.248911441000000    -6.762901492000000    -0.038546109000000
 H    -2.203360422000000    -4.842235643000000    -0.081511553000000
 C    -0.044192124000000    -7.460303117000000    0.021256462000000
 H    -2.189226859000000    -7.305893446000000    -0.091450314000000
 C    1.159553633000000    -6.762781445000000    0.088568927000000
 H    -0.043330401000000    -8.547319791000000    0.014871726000000
 C    1.157332981000000    -5.365561359000000    0.094243010000000
 H    2.101491755000000    -7.303278624000000    0.135334292000000
 H    2.106152827000000    -4.833265317000000    0.145564429000000
 C    -0.046565513000000    -4.646604888000000    0.032608119000000




