%nproc=18
%mem=70GB
%chk=BDBA_boroxine_freq.chk
#P B3LYP/6-311++G(d,p) EmpiricalDispersion=GD3 freq(noraman) SCF=YQC

Restart from BDBA_boroxine.log

0 1
 C  -0.695166  -1.207139   0.003921
 C   0.695021  -1.207159   0.001354
 C   1.414077  -0.000076  -0.007739
 C   0.695027   1.207027  -0.014423
 C  -0.695160   1.207046  -0.011999
 C  -1.414216  -0.000036  -0.002793
 B   2.965300  -0.000091  -0.010208
 O   3.668546  -1.189997  -0.003701
 B   5.052152  -1.210255  -0.004652
 C   5.833497  -2.560443   0.036342
 B  -2.965446  -0.000012  -0.000179
 O  -3.668693  -1.189899   0.008277
 B  -5.052316  -1.210139   0.007154
 O  -5.723588   0.000016   0.004211
 B  -5.052323   1.210141  -0.000860
 C  -5.832958   2.561038   0.028698
 O   3.668550   1.189772  -0.019815
 B   5.052183   1.209997  -0.021120
 O   5.723422  -0.000151  -0.017504
 C   5.833273   2.560770   0.001409
 O  -3.668690   1.189871  -0.006338
 C  -5.833291  -2.560890  -0.019932
 H   1.238852   2.145386  -0.021413
 H  -1.238980   2.145420  -0.017157
 H  -1.238991  -2.145498   0.010990
 H   1.238841  -2.145532   0.006604
 H   5.267702   3.371332  -0.463645
 H   6.011422   2.855222   1.044038
 H   6.813186   2.475916  -0.473689
 H   6.811206  -2.483046  -0.444599
 H   6.016907  -2.837581   1.082796
 H   5.266127  -3.378642  -0.412812
 H  -6.814786  -2.476856   0.452022
 H  -6.007791  -2.853863  -1.063591
 H  -5.269151  -3.372072   0.445804
 H  -6.817828   2.476229  -0.435972
 H  -5.271914   3.370947  -0.443012
 H  -5.999537   2.856706   1.072891






