%nproc=15
%mem=70GB
%chk=Pyrene_PrimaryAmine_Imide.chk
#P B3LYP/6-311++G(d,p) EmpiricalDispersion=GD3 opt SCF=YQC NoSymm

Comment

0 1
 C    0.000149000000000    3.538221000000000    0.000000000000000
 C    -1.208314000000000    2.825814000000000    0.000000000000000
 C    -1.234523000000000    1.426499000000000    0.000000000000000
 C    0.000173000000000    0.711855000000000    0.000000000000000
 C    1.234878000000000    1.426489000000000    0.000000000000000
 C    1.208633000000000    2.825798000000000    0.000000000000000
 H    -2.147734000000000    3.368891000000000    0.000000000000000
 H    2.148055000000000    3.368886000000000    0.000000000000000
 C    0.000167000000000    -0.711882000000000    0.000000000000000
 C    -1.234536000000000    -1.426518000000000    0.000000000000000
 C    -1.208310000000000    -2.825825000000000    0.000000000000000
 C    0.000175000000000    -3.538236000000000    0.000000000000000
 C    1.208656000000000    -2.825835000000000    0.000000000000000
 C    1.234871000000000    -1.426526000000000    0.000000000000000
 H    -2.147732000000000    -3.368910000000000    0.000000000000000
 H    2.148078000000000    -3.368915000000000    0.000000000000000
 C    2.463326000000000    0.679235000000000    0.000000000000000
 C    2.463326000000000    -0.679271000000000    0.000000000000000
 H    3.399127000000000    1.228117000000000    0.000000000000000
 H    3.399123000000000    -1.228155000000000    0.000000000000000
 C    -2.462978000000000    0.679245000000000    0.000000000000000
 C    -2.462987000000000    -0.679261000000000    0.000000000000000
 H    -3.398774000000000    1.228133000000000    0.000000000000000
 H    -3.398787000000000    -1.228142000000000    0.000000000000000
 C    0.660975191000000    7.153223788000000    -0.189077173000000
 C    1.364564858000000    8.327009134000001    -0.388117613000000
 H    2.412529038000000    8.311500848000000    -0.670892521000000
 C    0.672119367000000    9.528930653000000    -0.212167373000000
 H    1.188287985000000    10.476083716000000    -0.359605487000000
 C    -0.688617196000000    9.528812369000001    0.153941616000000
 H    -1.209034981000000    10.475873795000000    0.286222593000000
 C    -1.375967627000000    8.326752114000000    0.347953736000000
 H    -2.424169360000000    8.311053663999999    0.629863529000000
 C    -0.667601735000000    7.153086715000001    0.165877070000000
 C    -1.094647076000000    5.763712125000000    0.289157540000000
 C    1.092428358000000    5.763913226000000    -0.296897012000000
 N    -0.000413318000000    4.969900219000000    -0.001585681000000
 O    2.238807614000000    5.498111411000000    -0.612841946000000
 O    -2.239378651000000    5.497767065000000    0.610780963000000
 C    -0.660975191000000    -7.153223788000000    0.189077173000000
 C    -1.364564858000000    -8.327009134000001    0.388117613000000
 H    -2.412529038000000    -8.311500848000000    0.670892521000000
 C    -0.672119367000000    -9.528930653000000    0.212167373000000
 H    -1.188287985000000    -10.476083716000000    0.359605487000000
 C    0.688617196000000    -9.528812369000001    -0.153941616000000
 H    1.209034981000000    -10.475873795000000    -0.286222593000000
 C    1.375967627000000    -8.326752114000000    -0.347953736000000
 H    2.424169360000000    -8.311053663999999    -0.629863529000000
 C    0.667601735000000    -7.153086715000001    -0.165877070000000
 C    1.094647076000000    -5.763712125000000    -0.289157540000000
 C    -1.092428358000000    -5.763913226000000    0.296897012000000
 N    0.000413318000000    -4.969900219000000    0.001585681000000
 O    -2.238807614000000    -5.498111411000000    0.612841946000000
 O    2.239378651000000    -5.497767065000000    -0.610780963000000




