%nproc=15
%mem=70GB
%chk=TriPhenanthrene_CarboxylicAnhydride_Imide_freq.chk
#P B3LYP/6-311++G(d,p) EmpiricalDispersion=GD3 freq(noraman) SCF=YQC NoSymm

Restart from TriPhenanthrene_CarboxylicAnhydride_Imide-2.log

0 1
 C  -5.659229  -2.476918   0.204831
 C   4.990386  -3.654974  -0.002832
 C   0.628652   6.092073  -0.258722
 C  -0.628476   6.092104   0.280031
 C   5.659122  -2.477110  -0.183042
 C  -4.990511  -3.654884   0.025223
 C  -4.986606  -1.239568   0.414157
 C   3.568604  -3.736667  -0.009583
 C   1.352933   4.892010  -0.513330
 C  -1.352835   4.892078   0.534605
 C   4.986509  -1.239802  -0.392630
 C  -3.568734  -3.736627   0.032244
 C  -5.658606   0.000894   0.508166
 C   2.861169  -4.931732   0.258449
 C   2.678887   4.860658  -1.003990
 C  -2.678774   4.860812   1.025317
 C   5.658528   0.000605  -0.487191
 C  -2.861298  -4.931798  -0.235309
 C  -4.953180   1.175964   0.628389
 C   1.485529  -4.945423   0.278202
 C   3.358206   3.668404  -1.119070
 C  -3.358167   3.668601   1.140411
 C   4.953119   1.175675  -0.607534
 C  -1.485658  -4.945517  -0.254961
 C  -3.538441   1.176307   0.701155
 C   0.741408  -3.774277  -0.003484
 C   2.768713   2.445453  -0.712001
 C  -2.768757   2.445635   0.733281
 C   3.538354   1.176091  -0.679819
 C  -0.741538  -3.774272   0.026320
 C  -2.886428  -0.052433   0.668365
 C   1.440715  -2.609186  -0.299408
 C   1.449002   2.478907  -0.272660
 C  -1.449078   2.478994   0.293841
 C   2.886314  -0.052624  -0.646492
 C  -1.440846  -2.609072   0.321806
 C  -3.560969  -1.272605   0.486317
 C   2.845094  -2.535216  -0.278029
 C   0.698042   3.664056  -0.202543
 C  -0.698033   3.664093   0.223747
 C   3.560853  -1.272787  -0.464408
 C  -2.845226  -2.535104   0.300371
 H   3.155033   5.793454  -1.274729
 H   4.366224   3.678528  -1.513874
 H   0.999892   1.567738   0.093645
 H  -3.154834   5.793639   1.296102
 H  -4.366165   3.678740   1.535273
 H  -1.000104   1.567785  -0.072542
 H  -6.738522   0.011709   0.449782
 H  -5.496786   2.111948   0.633621
 H  -1.811820  -0.064195   0.768464
 H  -0.873627  -1.728294   0.583938
 H  -0.971668  -5.863139  -0.512846
 H  -3.423831  -5.830474  -0.449067
 H   3.423703  -5.830344   0.472469
 H   0.971542  -5.862944   0.536451
 H   0.873495  -1.728517  -0.561905
 H   6.738461   0.011400  -0.429133
 H   5.496808   2.111606  -0.613215
 H   1.811668  -0.064397  -0.746131
 C   7.126825  -2.741514  -0.093576
 C   5.989770  -4.743859   0.215209
 N   7.257654  -4.126828   0.144952
 O   5.795311  -5.919917   0.413396
 O   8.043186  -1.960687  -0.197116
 C   8.500847  -4.810126   0.293544
 C   8.711647  -6.018201  -0.373215
 H   7.928890  -6.435533  -0.991785
 C   9.924140  -6.684495  -0.218887
 H   10.083866  -7.625878  -0.731784
 C   10.928235  -6.144394   0.583201
 H   11.872958  -6.663638   0.695901
 C   10.712346  -4.933826   1.239807
 H   11.488495  -4.506847   1.864356
 C   9.498239  -4.266257   1.104608
 H   9.328067  -3.325171   1.609429
 C  -5.989899  -4.743810  -0.192595
 C  -7.126926  -2.741286   0.115132
 N  -7.257767  -4.126688  -0.122873
 O  -8.043275  -1.960374   0.218127
 O  -5.795453  -5.919957  -0.390267
 C  -8.500960  -4.809986  -0.271463
 C  -9.498130  -4.266414  -1.082999
 H  -9.327785  -3.325556  -1.588186
 C  -10.712241  -4.933975  -1.218195
 H  -11.488220  -4.507226  -1.843113
 C  -10.928351  -6.144246  -0.561114
 H  -11.873076  -6.663487  -0.673811
 C  -9.924476  -6.684054   0.241447
 H  -10.084375  -7.625205   0.754715
 C  -8.711983  -6.017759   0.395771
 H  -7.929393  -6.434865   1.014708
 C  -1.065702   7.506819   0.472960
 C   1.065974   7.506764  -0.451597
 N   0.000160   8.309663   0.010687
 O   2.106330   7.919200  -0.907419
 O  -2.106027   7.919312   0.928798
 C   0.000207   9.735999   0.010703
 C   0.439786   10.429252  -1.118372
 H   0.787073   9.882717  -1.984455
 C   0.444624   11.821319  -1.109968
 H   0.792706   12.358158  -1.984855
 C   0.000302   12.521202   0.010732
 H   0.000339   13.605092   0.010744
 C  -0.444067   11.821325   1.131417
 H  -0.792113   12.358169   2.006317
 C  -0.439326   10.429257   1.139793
 H  -0.786649   9.882727   2.005863






