%nproc=15
%mem=70GB
%chk=3_Phenyl_Aldehyde_Azine_freq.chk
#P B3LYP/6-311++G(d,p) EmpiricalDispersion=GD3 freq(noraman) SCF=YQC

Restart from 3_Phenyl_Aldehyde_Azine.log

0 1
 C   0.604037  -1.269305   0.000056
 C   1.391111  -0.103032   0.000090
 C   0.796859   1.157768   0.000124
 C  -0.606703   1.256265   0.000132
 C  -1.401458   0.111228   0.000098
 C  -0.784972  -1.153546   0.000066
 H  -1.059749   2.240717   0.000167
 H  -1.411032  -2.038110   0.000048
 H   2.470192  -0.202940   0.000092
 C   1.206019  -2.603567   0.000009
 N   2.477449  -2.777081  -0.000090
 H   0.534186  -3.466147   0.000090
 N   2.837139  -4.119376  -0.000101
 C   4.110104  -4.289213  -0.000142
 C   4.724270  -5.615460  -0.000069
 H   4.774330  -3.419964  -0.000120
 C   6.123393  -5.715868  -0.000019
 C   6.745465  -6.961631   0.000036
 H   6.723396  -4.811588  -0.000032
 C   5.974961  -8.122705   0.000044
 H   7.827544  -7.026014   0.000070
 C   4.579527  -8.033227  -0.000007
 H   6.456421  -9.094152   0.000092
 C   3.956306  -6.792917  -0.000061
 H   3.980396  -8.936881  -0.000007
 H   2.876485  -6.712553  -0.000109
 C  -2.857950   0.257086   0.000100
 N  -3.644004  -0.757194  -0.000060
 H  -3.268986   1.270228   0.000235
 N  -4.986269  -0.397394  -0.000033
 C  -5.769994  -1.414776  -0.000128
 C  -7.225618  -1.283271  -0.000058
 H  -5.349497  -2.424714  -0.000194
 C  -8.012339  -2.444602  -0.000112
 C  -9.402218  -2.360185  -0.000060
 H  -7.529386  -3.416446  -0.000205
 C  -10.022267  -1.112260   0.000049
 H  -9.999182  -3.264992  -0.000106
 C  -9.246859   0.051347   0.000101
 H  -11.104282  -1.043301   0.000096
 C  -7.861128  -0.029347   0.000049
 H  -9.729708   1.022123   0.000180
 H  -7.251464   0.865518   0.000081
 C   1.651458   2.346170   0.000152
 N   1.166157   3.534076   0.000025
 H   2.734375   2.195522   0.000234
 N   2.148927   4.516566   0.000041
 C   1.659757   5.703996  -0.000049
 C   2.501491   6.898832  -0.000036
 H   0.574881   5.844832  -0.000125
 C   1.889117   8.160829  -0.000114
 C   2.657159   9.322293  -0.000109
 H   0.805999   8.228513  -0.000183
 C   4.047914   9.235284  -0.000027
 H   2.172059   10.291684  -0.000170
 C   4.667917   7.981950   0.000045
 H   4.648653   10.137849  -0.000019
 C   3.905171   6.822216   0.000042
 H   5.750057   7.914716   0.000103
 H   4.375330   5.846808   0.000093






