%nproc=15
%mem=70GB
%chk=2_Phenyl_AmineBorane_Borazine_freq.chk
#P B3LYP/6-311++G(d,p) EmpiricalDispersion=GD3 freq(noraman) SCF=YQC NoSymm

Restart from 2_Phenyl_AmineBorane_Borazine.log

0 1
 C   0.004195  -1.408535   0.011219
 C  -0.004195   1.408535  -0.011219
 C  -1.139800  -0.696065   0.377626
 C   1.139800   0.696065  -0.377626
 C  -1.143944   0.695183   0.366538
 C   1.143944  -0.695183  -0.366538
 H   2.033020  -1.234808  -0.670348
 H  -2.033020   1.234808   0.670348
 H   2.025662   1.236068  -0.690035
 H  -2.025662  -1.236068   0.690035
 N   0.008473  -2.841492   0.022641
 B   1.051049  -3.550184   0.722021
 B  -1.029645  -3.567492  -0.665524
 H   1.902364  -2.956477   1.303029
 N   1.028024  -4.978723   0.709015
 H  -1.884634  -2.988250  -1.255668
 N  -0.997751  -4.995484  -0.630168
 B   0.017485  -5.741160   0.045306
 H   1.756077  -5.468228   1.207074
 H  -1.722635  -5.497234  -1.120609
 H   0.021151  -6.932491   0.054661
 N  -0.008473   2.841492  -0.022641
 B  -1.051049   3.550184  -0.722021
 B   1.029645   3.567492   0.665524
 H  -1.902364   2.956477  -1.303029
 N  -1.028024   4.978723  -0.709015
 H   1.884634   2.988250   1.255668
 N   0.997751   4.995484   0.630168
 B  -0.017485   5.741160  -0.045306
 H  -1.756077   5.468228  -1.207074
 H   1.722635   5.497234   1.120609
 H  -0.021151   6.932491  -0.054661






