%nproc=15
%mem=70GB
%chk=2_Phenyl_PrimaryAmine_Ketoenamine_freq.chk
#P B3LYP/6-311++G(d,p) EmpiricalDispersion=GD3 freq(noraman) SCF=YQC NoSymm

Restart from 2_Phenyl_PrimaryAmine_Ketoenamine.log

0 1
 C  -0.013029  -1.410646  -0.038266
 C   0.013021   1.410643   0.038255
 C  -1.212037  -0.685892  -0.028010
 C   1.212029   0.685888   0.027999
 C  -1.194800   0.701128   0.004605
 C   1.194792  -0.701132  -0.004617
 H   2.132168  -1.246240  -0.025463
 H  -2.132176   1.246236   0.025451
 H   2.167507   1.194545   0.020494
 H  -2.167515  -1.194549  -0.020505
 H   2.552808  -7.210600  -0.026909
 C   1.667750  -7.833379   0.010392
 C   1.767413  -9.219716   0.039326
 H   2.743303  -9.691623   0.014707
 C   0.614140  -10.003295   0.103198
 H   0.690943  -11.084570   0.130018
 C  -0.637687  -9.390849   0.137772
 H  -1.536443  -9.994079   0.199755
 C  -0.737842  -8.002218   0.097016
 H  -1.718425  -7.544999   0.141849
 C   0.413970  -7.206610   0.029826
 C   0.375381  -5.706724   0.001549
 O   1.415272  -5.072947   0.266526
 C  -0.853456  -5.030200  -0.351678
 C  -0.961438  -3.663681  -0.374424
 H  -1.722219  -5.598050  -0.648133
 N   0.039288  -2.810744  -0.072585
 H  -1.903253  -3.213107  -0.666796
 H   0.921663  -3.284980   0.138913
 H  -2.552805   7.210617   0.027020
 C  -1.667744   7.833390  -0.010327
 C  -1.767399   9.219728  -0.039264
 H  -2.743285   9.691641  -0.014602
 C  -0.614124   10.003298  -0.103196
 H  -0.690921   11.084573  -0.130019
 C   0.637698   9.390843  -0.137826
 H   1.536455   9.994067  -0.199856
 C   0.737845   8.002212  -0.097066
 H   1.718423   7.544987  -0.141943
 C  -0.413969   7.206612  -0.029816
 C  -0.375390   5.706727  -0.001532
 O  -1.415305   5.072958  -0.266432
 C   0.853453   5.030196   0.351667
 C   0.961433   3.663677   0.374408
 H   1.722222   5.598043   0.648108
 N  -0.039295   2.810741   0.072574
 H   1.903250   3.213101   0.666768
 H  -0.921668   3.284977  -0.138930






