%nproc=15
%mem=70GB
%chk=ETTA_BoronicAcid_BoronateEster_freq.chk
#P B3LYP/6-311++G(d,p) EmpiricalDispersion=GD3 freq(noraman) SCF=YQC

Restart from ETTA_BoronicAcid_BoronateEster.log

0 1
 C   0.000063   0.680890  -0.000194
 C   0.000104  -0.680901  -0.000205
 C  -1.250661   1.480056  -0.121390
 C  -2.194707   1.203271  -1.121644
 H  -2.013050   0.385993  -1.808933
 C  -3.353518   1.959709  -1.231504
 H  -4.070428   1.731243  -2.012538
 C  -3.613212   3.018014  -0.344794
 C  -2.657659   3.302066   0.645343
 H  -2.834790   4.118151   1.337408
 C  -1.491014   2.555687   0.747274
 H  -0.758587   2.796052   1.509630
 C  -1.250578  -1.480117   0.121099
 C  -2.194616  -1.203254   1.121336
 H  -2.012972  -0.385895   1.808534
 C  -3.353410  -1.959707   1.231284
 H  -4.070326  -1.731169   2.012291
 C  -3.613082  -3.018114   0.344689
 C  -2.657534  -3.302243  -0.645431
 H  -2.834648  -4.118409  -1.337404
 C  -1.490914  -2.555836  -0.747459
 H  -0.758497  -2.796246  -1.509811
 C   1.250692   1.480165   0.121134
 C   1.490850   2.556071  -0.747258
 H   0.758322   2.796573  -1.509472
 C   2.657424   3.302541  -0.645228
 H   2.834399   4.118860  -1.337057
 C   3.613116   3.018290   0.344725
 C   3.353631   1.959697   1.231145
 H   4.070653   1.731064   2.012026
 C   2.194879   1.203176   1.121194
 H   2.013383   0.385681   1.808268
 C   1.250775  -1.480122  -0.121431
 C   2.194970  -1.203206  -1.121506
 H   2.013459  -0.385791  -1.808672
 C   3.353744  -1.959703  -1.231368
 H   4.070760  -1.731136  -2.012275
 C   3.613258  -3.018194  -0.344833
 C   2.657562  -3.302375   0.645135
 H   2.834558  -4.118610   1.337056
 C   1.490957  -2.555938   0.747066
 H   0.758420  -2.796400   1.509285
 B  -4.902083   3.845272  -0.459546
 O  -5.894867   3.638137  -1.416204
 O  -5.241828   4.905848   0.379428
 C  -6.860814   4.586537  -1.160534
 C  -6.463799   5.357364  -0.068994
 C  -8.053376   4.810774  -1.820497
 C  -7.239097   6.391730   0.417886
 C  -8.849782   5.857221  -1.336870
 C  -8.451634   6.630254  -0.242512
 H  -8.350364   4.204653  -2.666750
 H  -6.919415   6.983019   1.266368
 H  -9.794327   6.069918  -1.823265
 H  -9.092891   7.431752   0.104437
 B  -4.901927  -3.845398   0.459540
 O  -5.241560  -4.906191  -0.379206
 O  -5.894792  -3.638081   1.416074
 C  -6.463546  -5.357653   0.069230
 C  -6.860677  -4.586587   1.160558
 C  -7.238760  -6.392171  -0.417462
 C  -8.053279  -4.810720   1.820484
 C  -8.451336  -6.630592   0.242902
 C  -8.849601  -5.857317   1.337046
 H  -6.918988  -6.983647  -1.265779
 H  -8.350357  -4.204411   2.666571
 H  -9.092531  -7.432203  -0.103904
 H  -9.794172  -6.069942   1.823420
 B   4.901918   3.845644   0.459554
 O   5.241368   4.906600  -0.379060
 O   5.894929   3.638231   1.415918
 C   6.463384   5.358069   0.069287
 C   6.860714   4.586844   1.160431
 C   7.238464   6.392719  -0.417337
 C   8.053392   4.810945   1.820231
 C   8.451114   6.631110   0.242901
 C   8.849579   5.857676   1.336860
 H   6.918536   6.984317  -1.265512
 H   8.350626   4.204514   2.666175
 H   9.092208   7.432821  -0.103857
 H   9.794203   6.070281   1.823142
 B   4.902090  -3.845514  -0.459561
 O   5.895019  -3.638283  -1.416049
 O   5.241654  -4.906252   0.379283
 C   6.860870  -4.586788  -1.160405
 C   6.463657  -5.357771  -0.069048
 C   8.053509  -4.810990  -1.820241
 C   7.238823  -6.392267   0.417766
 C   8.849781  -5.857568  -1.336680
 C   8.451435  -6.630758  -0.242506
 H   8.350651  -4.204748  -2.666353
 H   6.918987  -6.983677   1.266106
 H   9.794379  -6.070245  -1.822981
 H   9.092594  -7.432356   0.104398






