%nproc=15
%mem=70GB
%chk=TetraPhenylSilane_PrimaryAmine_Imine_freq.chk
#P B3LYP/6-311++G(d,p) EmpiricalDispersion=GD3 freq(noraman) SCF=YQC

Restart from TetraPhenylSilane_PrimaryAmine_Imine-2.log

0 1
Si   0.000000  -0.000001  -0.177733
 C   3.384586  -1.833241  -2.905579
 C  -1.828662  -3.385023   2.553487
 C  -3.384602   1.833223  -2.905570
 C   1.828677   3.385038   2.553455
 C   2.946052  -2.518761  -1.762151
 C  -2.495398  -2.975262   1.388486
 C  -2.946061   2.518750  -1.762149
 C   2.495406   2.975270   1.388453
 C   1.933990  -1.985810  -0.968708
 C  -1.964232  -1.962941   0.594356
 C  -1.933995   1.985804  -0.968708
 C   1.964236   1.962944   0.594333
 C   1.326973  -0.760012  -1.279847
 C  -0.759526  -1.325773   0.926728
 C  -1.326979   0.760004  -1.279843
 C   0.759532   1.325778   0.926716
 C   1.759477  -0.098382  -2.443535
 C  -0.099442  -1.753805   2.092801
 C  -1.759489   0.098366  -2.443526
 C   0.099455   1.753817   2.092790
 C   2.757538  -0.627460  -3.251990
 C  -0.609240  -2.776023   2.883402
 C  -2.757556   0.627440  -3.251978
 C   0.609257   2.776040   2.883382
 H   3.373364  -3.485589  -1.519926
 H  -3.412925  -3.472282   1.093173
 H  -3.373373   3.485579  -1.519927
 H   3.412931   3.472289   1.093132
 H   1.601904  -2.546120  -0.100671
 H  -2.501054  -1.666718  -0.301120
 H  -1.601904   2.546119  -0.100677
 H   2.501053   1.666716  -0.301145
 H   1.292269   0.836918  -2.736297
 H   0.830623  -1.278925   2.389736
 H  -1.292283  -0.836934  -2.736285
 H  -0.830608   1.278939   2.389734
 H   3.072913  -0.118883  -4.155766
 H  -0.086593  -3.108173   3.773112
 H  -3.072936   0.118858  -4.155749
 H   0.086615   3.108195   3.773093
 N   4.383862  -2.328616  -3.758304
 C   5.432483  -2.869182  -3.271278
 C   6.484957  -3.461799  -4.105364
 C   7.616270  -4.014670  -3.490268
 C   8.630997  -4.585758  -4.254755
 C   8.523761  -4.608679  -5.643890
 C   7.398538  -4.058872  -6.266044
 C   6.385602  -3.490189  -5.505747
 H   5.608943  -2.904915  -2.186867
 H   7.699122  -3.996334  -2.408036
 H   9.501576  -5.011056  -3.768598
 H   9.311775  -5.052443  -6.241980
 H   7.315929  -4.077424  -7.346997
 H   5.507872  -3.061088  -5.973292
 N  -2.300936  -4.414910   3.382532
 C  -3.542758  -4.491292   3.667132
 C  -4.110652  -5.577869   4.474288
 C  -5.482482  -5.573491   4.760439
 C  -6.050984  -6.591739   5.522172
 C  -5.251303  -7.625236   6.005995
 C  -3.881364  -7.637298   5.725618
 C  -3.313082  -6.623846   4.965722
 H  -4.256937  -3.727262   3.328791
 H  -6.104775  -4.767895   4.383375
 H  -7.113371  -6.578724   5.737300
 H  -5.690616  -8.419399   6.599213
 H  -3.260038  -8.442040   6.102411
 H  -2.253815  -6.619949   4.739721
 N  -4.383883   2.328592  -3.758293
 C  -5.432502   2.869161  -3.271263
 C  -6.484980   3.461772  -4.105347
 C  -7.616290   4.014647  -3.490248
 C  -8.631022   4.585730  -4.254732
 C  -8.523794   4.608643  -5.643868
 C  -7.398575   4.058832  -6.266025
 C  -6.385634   3.490154  -5.505731
 H  -5.608955   2.904900  -2.186852
 H  -7.699135   3.996318  -2.408015
 H  -9.501598   5.011030  -3.768572
 H  -9.311812   5.052403  -6.241955
 H  -7.315972   4.077378  -7.346978
 H  -5.507906   3.061051  -5.973278
 N   2.300955   4.414931   3.382491
 C   3.542779   4.491316   3.667083
 C   4.110677   5.577898   4.474229
 C   5.482509   5.573523   4.760372
 C   6.051015   6.591776   5.522095
 C   5.251336   7.625276   6.005915
 C   3.881395   7.637335   5.725547
 C   3.313109   6.623878   4.965661
 H   4.256956   3.727284   3.328744
 H   6.104800   4.767924   4.383310
 H   7.113403   6.578763   5.737217
 H   5.690652   8.419443   6.599125
 H   3.260071   8.442079   6.102338
 H   2.253841   6.619979   4.739666






