%nproc=15
%mem=70GB
%chk=An_Cyanohydrine_Benzobisoxazole.chk
#P B3LYP/6-311++G(d,p) EmpiricalDispersion=GD3 opt SCF=YQC

Comment

0 1
 C    3.660910000000000    0.584795000000000    0.000000000000000
 C    3.611010000000000    -0.839705000000000    0.000000000000000
 C    2.416510000000000    -1.489505000000000    0.000000000000000
 C    1.187010000000000    -0.752805000000000    0.000000000000000
 C    2.514810000000000    1.316595000000000    0.000000000000000
 C    1.236810000000000    0.667895000000000    0.000000000000000
 C    -0.049090000000000    -1.403205000000000    0.000000000000000
 C    -1.236890000000000    -0.667805000000000    0.000000000000000
 C    0.049210000000000    1.403295000000000    0.000000000000000
 C    -1.187090000000000    0.752795000000000    0.000000000000000
 C    -2.514790000000000    -1.316705000000000    0.000000000000000
 C    -3.660890000000000    -0.584805000000000    0.000000000000000
 C    -3.610990000000000    0.839495000000000    0.000000000000000
 C    -2.416490000000000    1.489495000000000    0.000000000000000
 H    2.368010000000000    -2.584305000000000    0.000000000000000
 H    2.543210000000000    2.412195000000000    0.000000000000000
 H    -0.087590000000000    -2.499505000000000    0.000000000000000
 H    0.087610000000000    2.499595000000000    0.000000000000000
 H    -2.543090000000000    -2.412205000000000    0.000000000000000
 H    -2.368190000000000    2.584395000000000    0.000000000000000
 N    5.002822481000000    0.936535066000000    0.064989441000000
 O    4.853218416000000    -1.325059659000000    -0.022003196000000
 C    5.657752229000000    -0.212180444000000    0.030920069000000
 C    7.792436953000001    -1.524326495000000    -0.032420345000000
 C    9.189671022000001    -1.571813402000000    -0.038546109000000
 H    7.236747396000000    -2.458390792000000    -0.081511553000000
 C    9.928848890999999    -0.392265295000000    0.021256462000000
 H    9.699388074000000    -2.530573994000000    -0.091450314000000
 C    9.273925599000000    0.835177498000000    0.088568927000000
 H    11.015228514000000    -0.429485011000000    0.014871726000000
 C    7.877485368000000    0.881906320000000    0.094243010000000
 H    9.847089453000001    1.757602467000000    0.135334292000000
 H    7.378755594000000    1.848791417000000    0.145564429000000
 C    7.116794639000000    -0.296066347000000    0.032608119000000
 N    -5.002770535000000    -0.936686103000000    0.064989441000000
 O    -4.853234372000000    1.324913112000000    -0.022003196000000
 C    -5.657734772000000    0.212009742000000    0.030920069000000
 C    -7.792458891000000    1.524091701000000    -0.032420345000000
 C    -9.189694384999999    1.571536658000000    -0.038546109000000
 H    -7.236797378000000    2.458172682000000    -0.081511553000000
 C    -9.928836839000001    0.391966358000000    0.021256462000000
 H    -9.699440222000000    2.530281945000000    -0.091450314000000
 C    -9.273876694000000    -0.835456771000000    0.088568927000000
 H    -11.015217579000002    0.429153457000000    0.014871726000000
 C    -7.877435061000000    -0.882143667000000    0.094243010000000
 H    -9.847012854000001    -1.757898948000000    0.135334292000000
 H    -7.378676258000000    -1.849013789000000    0.145564429000000
 C    -7.116779700000000    0.295851839000000    0.032608119000000




