%nproc=15
%mem=70GB
%chk=TrisPhenyl_Aldehyde_Imine.chk
#P B3LYP/6-311++G(d,p) EmpiricalDispersion=GD3 opt SCF=YQC

Comment

0 1
 C    5.413628598000000    -1.872546979000000    -0.010594081000000
 C    5.035722949999999    -0.755661278000000    0.753536436000000
 C    3.723673695000000    -0.300430655000000    0.759525264000000
 C    2.735803795999999    -0.944625681000000    0.000449131000000
 C    3.108315992000000    -2.059076085000000    -0.765208093000000
 C    4.420719166000000    -2.513357956000000    -0.770224134000000
 C    1.334053259000000    -0.458848890000000    0.000402830000000
 C    0.268355259000000    -1.366873890000000    0.008860830000000
 C    -1.059173741000000    -0.922488890000000    0.008337830000000
 C    -1.309241741000000    0.453656110000000    0.006809830000000
 C    -0.264218741000000    1.383363110000000    0.003920830000000
 C    1.053270259000000    0.911980110000000    -0.001354170000000
 C    -0.547166741000000    2.832910110000000    0.023508830000000
 C    0.132648259000000    3.710843110000000    -0.833951170000000
 C    -0.134981741000000    5.073690110000000    -0.817152170000000
 C    -1.095013741000000    5.616633110000000    0.054395830000000
 C    -1.773249741000000    4.731796110000000    0.910653830000000
 C    -1.504821741000000    3.368908110000000    0.897304830000000
 C    -2.182774741000000    -1.891955890000000    -0.017346170000000
 C    -3.315488741000000    -1.662366890000000    -0.812060170000000
 C    -4.366923741000000    -2.569668890000000    -0.831200170000000
 C    -4.330026741000000    -3.741083890000000    -0.056511170000000
 C    -3.194045741000000    -3.964973890000000    0.739344830000000
 C    -2.141176741000000    -3.059528890000000    0.758579830000000
 H    0.474380259000000    -2.429560890000000    -0.040814170000000
 H    1.873134259000000    1.618471110000000    0.074149830000000
 H    -2.335361741000000    0.804210110000000    -0.020704170000000
 H    0.839454259000000    3.316212110000000    -1.556644170000000
 H    -2.004881741000000    2.721095110000000    1.609926830000000
 H    0.396903259000000    5.726432110000000    -1.500808170000000
 H    -2.509284741000000    5.119474110000000    1.606548830000000
 H    4.680359519000000    -3.384593294000000    -1.361290287000000
 H    2.355934167000000    -2.588063678000000    -1.339179593000000
 H    5.783140304000000    -0.232983007000000    1.339887964000000
 H    3.464345167000000    0.579450163000000    1.337108744000000
 H    -1.287700741000000    -3.244167890000000    1.400987830000000
 H    -3.142543741000000    -4.854378890000000    1.357384830000000
 H    -5.225637741000000    -2.375433890000000    -1.464217170000000
 H    -3.358715741000000    -0.779456890000000    -1.439657170000000
 C    11.282055502000000    -4.444590958000000    -0.715784101000000
 C    10.268791223999999    -5.401507709000000    -0.632913822000000
 C    10.947246219000000    -3.093305509000000    -0.793862658000000
 C    9.613115257000000    -2.695143476000000    -0.769843701000000
 C    8.591159886000000    -3.653246442000000    -0.668969447000000
 C    8.933851245000000    -5.012805536000000    -0.627800976000000
 C    6.815165474000000    -2.304641249000000    -0.005621696000000
 N    7.226741087000000    -3.319500694000000    -0.662073060000000
 H    10.520664089000000    -6.455006842000000    -0.583876057000000
 H    11.727299028999999    -2.345350304000000    -0.884055273000000
 H    9.357326173000001    -1.645955982000000    -0.864584537000000
 H    8.137603364000000    -5.746163114000000    -0.579346625000000
 H    7.495511050000000    -1.705741475000000    0.615779877000000
 H    12.321593609000001    -4.750687431000000    -0.735709280000000
 C    -1.898030021000000    11.975398391000001    -0.632922492000000
 C    -0.560872842000000    11.579636343000001    -0.701074722000000
 C    -2.900232766000000    11.007233968000000    -0.583798256000000
 C    -2.573268450000000    9.653679994999999    -0.582650987000000
 C    -1.228667361000000    9.251193863999999    -0.633469430000000
 C    -0.227572517000000    10.229916898000001    -0.719745018000000
 C    -1.423134677000000    7.045837561000000    0.081728719000000
 N    -0.833253401000000    7.903552488000000    -0.657614066000000
 H    0.223670494000000    12.326393893000001    -0.751572062000000
 H    -3.942377150000000    11.305957951000000    -0.556354714000000
 H    -3.357450308000000    8.905190038000001    -0.578192390000000
 H    0.805286211000000    9.909399305999999    -0.787885844000000
 H    -2.205051761000000    7.340946016000000    0.795316577000000
 H    -2.156497100999999    13.027977871999999    -0.634579502000000
 C    -9.480902316000000    -7.539321611000000    -0.826581646000000
 C    -9.802198183000000    -6.181727867000001    -0.772085420000000
 C    -8.142531738000001    -7.928303380000000    -0.866871349000000
 C    -7.129627341000000    -6.973361318000000    -0.833320215000000
 C    -7.448018520000000    -5.607378893000000    -0.760871883000000
 C    -8.796618786000000    -5.221632331000000    -0.757701201000000
 C    -5.406773871000000    -4.736885969000000    -0.061955072000000
 N    -6.475222195000000    -4.594202063000000    -0.746295669000000
 H    -10.840755711000000    -5.870728897000000    -0.752515877000000
 H    -7.884800715000000    -8.979494191000001    -0.934891080000000
 H    -6.091746296000000    -7.279509185000000    -0.898701404000000
 H    -9.032609449000001    -4.164386899000000    -0.731011265000000
 H    -5.244875745000000    -5.616217153999999    0.576994550000000
 H    -10.266530137000000    -8.285497682999999    -0.853816517000000




