%nproc=15
%mem=70GB
%chk=ETTA_BoronicAcid_Boroxine.chk
#P B3LYP/6-311++G(d,p) EmpiricalDispersion=GD3 opt SCF=YQC

Comment

0 1
 C    -0.673043696000000    -0.061281087000000    0.099838696000000
 C    0.676216304000000    0.084438913000000    -0.077921304000000
 C    -1.445563696000000    0.859668913000000    0.987758696000000
 C    -1.208593696000000    0.910808913000000    2.368608696000000
 H    -0.435593696000000    0.291168913000000    2.815748696000000
 C    -1.956453696000000    1.762468913000000    3.184708696000000
 H    -1.756043696000000    1.803278913000000    4.251888696000000
 C    -2.958213696000000    2.558248913000000    2.631708696000000
 C    -3.215433696000000    2.502618913000000    1.263248696000000
 H    -4.001643696000000    3.116068913000000    0.831638696000000
 C    -2.465153696000000    1.655188913000000    0.445338696000000
 H    -2.681203696000000    1.618718913000000    -0.619611304000000
 C    1.423956304000000    1.217358913000000    0.545288696000000
 C    1.186576304000000    2.544388913000000    0.160958696000000
 H    0.432056304000000    2.771628913000000    -0.587751304000000
 C    1.910456304000000    3.588888913000000    0.739918696000000
 H    1.711366304000000    4.615018913000000    0.443058696000000
 C    2.886286304000000    3.315958913000000    1.697168696000000
 C    3.142086304000000    1.999178913000000    2.075248696000000
 H    3.907026304000000    1.784298913000000    2.816488696000000
 C    2.417466304000000    0.953908913000000    1.499138696000000
 H    2.631376304000000    -0.068851087000000    1.799648696000000
 C    -1.412513696000000    -1.154241087000000    -0.600071304000000
 C    -1.922953696000000    -2.232601087000000    0.134698696000000
 H    -1.770443696000000    -2.283151087000000    1.209878696000000
 C    -2.626883696000000    -3.253351087000000    -0.507091304000000
 H    -3.013833696000000    -4.089711087000000    0.068518696000000
 C    -2.834543696000000    -3.198741087000000    -1.884751304000000
 C    -2.343603696000000    -2.122491087000001    -2.622201304000000
 H    -2.507323696000000    -2.077791087000000    -3.695421304000000
 C    -1.638713696000000    -1.101381087000000    -1.982691304000000
 H    -1.261323696000000    -0.266561087000000    -2.567421304000000
 C    1.439886304000000    -0.894691087000000    -0.907871304000000
 C    1.681336304000000    -2.196721087000000    -0.447761304000000
 H    1.299246304000000    -2.515401087000000    0.518518696000000
 C    2.406656304000000    -3.098111087000000    -1.228831304000000
 H    2.581246304000000    -4.108341087000000    -0.868861304000000
 C    2.903116304000000    -2.703191087000000    -2.470121304000000
 C    2.679966304000000    -1.406181087000000    -2.930431304000000
 H    3.069876304000000    -1.097111087000000    -3.896341304000000
 C    1.955636304000000    -0.502771087000000    -2.150401304000000
 H    1.790596304000000    0.507088913000000    -2.517471304000000
 B    -3.929971901000000    3.398649531000000    3.496241404000000
 O    -3.747771879000000    3.507580037000000    4.866092229000000
 B    -4.606851076000000    4.251775938000000    5.638261361000000
 O    -5.002943745000000    4.059518726000000    2.918717383000000
 B    -5.868507368000000    4.806572734000000    3.680819530000000
 O    -5.666741503000000    4.900230943000000    5.041258383000000
 H    -4.438927352000000    4.335774996000000    6.808668875000000
 H    -6.782025118000000    5.366125346000000    3.173380661000000
 B    3.834775707000000    4.405607877000000    2.254875608000000
 O    4.792562302000000    4.092974109000000    3.206956987000000
 B    5.636816200000000    5.055668234000000    3.705500016000000
 O    3.745908948000000    5.716887792000000    1.814196194000000
 B    4.584756787000000    6.687974753000000    2.305535362000000
 O    5.529568923000000    6.352933738000000    3.251766171000000
 H    6.450992122000000    4.773903178000000    4.519646188000001
 H    4.497149044000000    7.805359949000000    1.919681484000000
 B    -3.774265457000000    -4.259183617000000    -2.509562205000000
 O    -4.248472929000000    -5.320254934000000    -1.754043230000000
 B    -5.082453471000000    -6.264240871000000    -2.303094029000000
 O    -4.160882810000000    -4.170146173000000    -3.837775298000000
 B    -4.994415613000000    -5.108183677000000    -4.397595331000000
 O    -5.453344655000000    -6.154432066000000    -3.626217577000000
 H    -5.480040424000000    -7.166487632000000    -1.645079312000000
 H    -5.316542376000000    -5.019499088000000    -5.534906811000000
 B    3.865142398000000    -3.599002027000000    -3.288676473000000
 O    4.134605792000000    -4.899373502000000    -2.891212648000000
 B    4.987428132000000    -5.698814802000000    -3.613485060000000
 O    4.477618479000000    -3.119418943000000    -4.436031597000000
 B    5.332208996000000    -3.909661621000000    -5.166292728000000
 O    5.584585302000000    -5.199763709000000    -4.751301164000000
 H    5.208824756000000    -6.808861068000000    -3.261506663000000
 H    5.849135277000000    -3.486113977000000    -6.145324201000000




