%nproc=15
%mem=70GB
%chk=TetraPhenylMethane_Aldehyde_Benzobisoxazole_freq.chk
#P B3LYP/6-311++G(d,p) EmpiricalDispersion=GD3 freq(noraman) SCF=YQC

Restart from TetraPhenylMethane_Aldehyde_Benzobisoxazole.log

0 1
 C   0.000596  -0.000012   0.000007
 C  -2.900353   0.677286   3.196303
 C   2.901270   3.196588  -0.677149
 C  -2.900329  -0.677345  -3.196306
 C   2.901352  -3.196552   0.677162
 C  -2.109468   1.736120   2.738495
 C   2.110375   2.738827  -1.735996
 C  -2.109421  -1.736169  -2.738515
 C   2.110445  -2.738818   1.736010
 C  -1.159391   1.527776   1.744328
 C   1.160453   1.744493  -1.527732
 C  -1.159350  -1.527820  -1.744343
 C   1.160498  -1.744506   1.527752
 C  -0.965541   0.262285   1.181708
 C   0.966712   1.181718  -0.262283
 C  -0.965528  -0.262330  -1.181701
 C   0.966743  -1.181722   0.262305
 C  -1.784948  -0.785372   1.628657
 C   1.786241   1.628513   0.785337
 C  -1.784958   0.785312  -1.628634
 C   1.786287  -1.628495  -0.785316
 C  -2.730101  -0.591819   2.623721
 C   2.731298   2.623677   0.591844
 C  -2.730106   0.591754  -2.623703
 C   2.731368  -2.623637  -0.591826
 H  -2.247817   2.721322   3.166157
 H   2.248599   3.166645  -2.721148
 H  -2.247748  -2.721367  -3.166194
 H   2.248679  -3.166641   2.721159
 H  -0.572031   2.370062   1.405153
 H   0.573142   1.405305  -2.370041
 H  -0.571972  -2.370097  -1.405183
 H   0.573179  -1.405342   2.370062
 H  -1.686412  -1.766855   1.181005
 H   1.687782   1.180764   1.766786
 H  -1.686446   1.766791  -1.180966
 H   1.687819  -1.180744  -1.766763
 H  -3.345202  -1.418540   2.955434
 H   3.346608   2.955155   1.418504
 H  -3.345225   1.418466  -2.955402
 H   3.346688  -2.955095  -1.418487
 H  -7.881232   0.032934   7.913923
 C  -7.113934   0.485971   7.297262
 C  -6.832959   1.855490   7.445483
 H  -7.391597   2.429775   8.175346
 C  -5.857662   2.488628   6.679342
 H  -5.638101   3.543156   6.790013
 C  -5.164791   1.707971   5.752619
 N  -4.153216   2.025693   4.852218
 C  -5.464534   0.345816   5.625135
 O  -4.643063  -0.166841   4.654680
 C  -6.428379  -0.305613   6.374252
 H  -6.635568  -1.360687   6.250551
 C  -3.886297   0.912204   4.242489
 H   7.882451   7.913866  -0.032663
 C   7.114092   7.298304  -0.485395
 C   6.829051   7.450714  -1.853613
 H   7.385663   8.182657  -2.427215
 C   5.852230   6.686146  -2.486306
 H   5.629533   6.800046  -3.539832
 C   5.162075   5.756633  -1.706561
 N   4.149777   4.856975  -2.024097
 C   5.465822   5.625027  -0.345686
 O   4.646147   4.652728   0.166352
 C   6.431241   6.372515   0.305282
 H   6.641572   6.245578   1.359349
 C   3.886347   4.243661  -0.911743
 H  -7.881218  -0.033025  -7.913920
 C  -7.113911  -0.486056  -7.297266
 C  -6.832906  -1.855566  -7.445509
 H  -7.391530  -2.429850  -8.175382
 C  -5.857595  -2.488694  -6.679377
 H  -5.638011  -3.543216  -6.790066
 C  -5.164742  -1.708038  -5.752641
 N  -4.153161  -2.025753  -4.852244
 C  -5.464516  -0.345892  -5.625135
 O  -4.643057   0.166767  -4.654670
 C  -6.428374   0.305529  -6.374242
 H  -6.635586   1.360596  -6.250523
 C  -3.886267  -0.912267  -4.242497
 H   7.882652  -7.913701   0.032649
 C   7.114277  -7.298162   0.485385
 C   6.829238  -7.450588   1.853601
 H   7.385867  -8.182522   2.427199
 C   5.852397  -6.686049   2.486298
 H   5.629702  -6.799962   3.539824
 C   5.162220  -5.756547   1.706559
 N   4.149900  -4.856917   2.024101
 C   5.465966  -5.624924   0.345685
 O   4.646267  -4.652643  -0.166347
 C   6.431404  -6.372384  -0.305286
 H   6.641734  -6.245434  -1.359352
 C   3.886456  -4.243602   0.911750






