%nproc=15
%mem=70GB
%chk=T-brick_PrimaryAmine_Imide_freq.chk
#P B3LYP/6-311++G(d,p) EmpiricalDispersion=GD3 freq(noraman) SCF=YQC NoSymm

Restart from T-brick_PrimaryAmine_Imide.log

0 1
 N   1.099624  -2.490108  -0.540758
 C   0.718516  -1.204992  -0.206074
 C  -0.695665  -1.236583  -0.208548
 N  -1.134671  -2.504715  -0.539547
 C  -1.437131  -0.064465   0.055415
 C  -2.915522  -0.040947   0.065629
 C  -0.683813   1.088768   0.302446
 H  -1.201523   2.008787   0.546286
 C   0.717215   1.099243   0.291437
 H   1.236453   2.022783   0.520969
 C   1.471407  -0.050681   0.041414
 C   2.949857  -0.053181   0.032186
 C  -3.616258   1.077517  -0.410628
 C   3.667855   0.962197  -0.614816
 C   3.677107  -1.067532   0.674080
 C  -3.660617  -1.122722   0.559405
 C  -5.048491  -1.084298   0.587620
 H  -3.146683  -2.003685   0.917728
 C   5.066982  -1.078010   0.661665
 H   3.149331  -1.839790   1.222625
 C  -5.724330   0.044459   0.121615
 H  -5.606634  -1.921119   0.984601
 C  -5.004067   1.129079  -0.379808
 H  -3.070693   1.913599  -0.831773
 C   5.057238   0.970147  -0.621105
 H   3.129157   1.747655  -1.131669
 C   5.761332  -0.055863   0.012093
 H   5.611086  -1.857071   1.177594
 H   5.594668   1.754576  -1.135860
 H  -5.526525   1.993481  -0.765826
 C  -0.052488  -3.225589  -0.739110
 H   2.042981  -2.782069  -0.737512
 C  -0.045527  -4.638163  -1.120676
 C  -1.247390  -5.246490  -1.511574
 C  -1.279935  -6.584019  -1.874931
 H  -2.152390  -4.652906  -1.522163
 C   1.123851  -5.410061  -1.106067
 C  -0.102677  -7.338675  -1.865820
 H  -2.210677  -7.040661  -2.180848
 C   1.102067  -6.746963  -1.482289
 H   2.067848  -4.983153  -0.786651
 H   2.009287  -7.333733  -1.457897
 C  -9.365290   0.412941  -0.445003
 C  -10.550390   0.720816  -1.092466
 H  -10.545221   1.133319  -2.094021
 C  -11.741735   0.477723  -0.400336
 H  -12.690824   0.705367  -0.871844
 C  -11.729397  -0.054908   0.893656
 H  -12.669129  -0.231602   1.404142
 C  -10.525360  -0.362669   1.536317
 H  -10.501117  -0.776005   2.537249
 C  -9.353125  -0.118908   0.839978
 C  -7.937716  -0.336574   1.250199
 C  -7.958330   0.554432  -0.913517
 N  -7.149861   0.086164   0.151268
 O  -7.561672   0.977108  -1.971787
 O  -7.520769  -0.777648   2.292934
 C   9.403163  -0.230083   0.648006
 C   10.589866  -0.408416   1.339725
 H   10.586566  -0.678663   2.388613
 C   11.780632  -0.226025   0.628325
 H   12.730894  -0.356514   1.133032
 C   11.766416   0.122175  -0.726978
 H   12.705887   0.256069  -1.250640
 C   10.560964   0.300560  -1.414251
 H   10.535673   0.570860  -2.462828
 C   9.389009   0.118757  -0.698681
 C   7.973458   0.234048  -1.144996
 C   7.997311  -0.350532   1.122787
 N   7.185982  -0.057602  -0.002531
 O   7.598951  -0.636753   2.224927
 O   7.551751   0.513758  -2.240131
 C  -0.612909  -10.689048  -3.351880
 C  -1.085459  -11.664942  -4.213837
 H  -1.747528  -11.410176  -5.032337
 C  -0.673588  -12.981250  -3.979811
 H  -1.021824  -13.774703  -4.630891
 C   0.181533  -13.292542  -2.916644
 H   0.482262  -14.322175  -2.761181
 C   0.653379  -12.297384  -2.054043
 H   1.316076  -12.524377  -1.227911
 C   0.239266  -10.998012  -2.296753
 C   0.565355  -9.743489  -1.565319
 C  -0.868285  -9.222756  -3.343748
 N  -0.132748  -8.711061  -2.242830
 O  -1.549056  -8.575454  -4.099768
 O   1.271500  -9.601570  -0.597480






