%nproc=15
%mem=70GB
%chk=Pyrene_PrimaryAmine_Ketoenamine.chk
#P B3LYP/6-311++G(d,p) EmpiricalDispersion=GD3 opt SCF=YQC NoSymm

Comment

0 1
 C    0.000149000000000    3.538221000000000    0.000000000000000
 C    -1.208314000000000    2.825814000000000    0.000000000000000
 C    -1.234523000000000    1.426499000000000    0.000000000000000
 C    0.000173000000000    0.711855000000000    0.000000000000000
 C    1.234878000000000    1.426489000000000    0.000000000000000
 C    1.208633000000000    2.825798000000000    0.000000000000000
 H    -2.147734000000000    3.368891000000000    0.000000000000000
 H    2.148055000000000    3.368886000000000    0.000000000000000
 C    0.000167000000000    -0.711882000000000    0.000000000000000
 C    -1.234536000000000    -1.426518000000000    0.000000000000000
 C    -1.208310000000000    -2.825825000000000    0.000000000000000
 C    0.000175000000000    -3.538236000000000    0.000000000000000
 C    1.208656000000000    -2.825835000000000    0.000000000000000
 C    1.234871000000000    -1.426526000000000    0.000000000000000
 H    -2.147732000000000    -3.368910000000000    0.000000000000000
 H    2.148078000000000    -3.368915000000000    0.000000000000000
 C    2.463326000000000    0.679235000000000    0.000000000000000
 C    2.463326000000000    -0.679271000000000    0.000000000000000
 H    3.399127000000000    1.228117000000000    0.000000000000000
 H    3.399123000000000    -1.228155000000000    0.000000000000000
 C    -2.462978000000000    0.679245000000000    0.000000000000000
 C    -2.462987000000000    -0.679261000000000    0.000000000000000
 H    -3.398774000000000    1.228133000000000    0.000000000000000
 H    -3.398787000000000    -1.228142000000000    0.000000000000000
 H    -2.587557919000000    9.499234927000000    -0.135347646000000
 C    -1.668417431000000    10.076811661000001    -0.048666070000000
 C    -1.747644657000000    11.472097939999999    -0.020301234000000
 H    -2.716340755000000    11.961810370000000    -0.083887148000000
 C    -0.587387732000000    12.233175157000000    0.090529017000000
 H    -0.647187794000000    13.318646664999999    0.112089415000000
 C    0.649782978000000    11.600391646999999    0.179517827000000
 H    1.555831137000000    12.195219917999999    0.271924119000000
 C    0.731452606000000    10.203389259000000    0.156230662000000
 H    1.718823675000000    9.766015883000000    0.247607407000000
 C    -0.427718932000000    9.423711180000000    0.033537642000000
 C    -0.414569645000000    7.926368438000000    0.068127913000000
 O    -1.418754286000000    7.318170461000000    0.432766820000000
 C    0.793810107000000    7.191618632000000    -0.404347789000000
 C    0.877792353000000    5.853421191000000    -0.403338528000000
 H    1.640502742000000    7.747308910000000    -0.777198396000000
 N    -0.062157931000000    4.941488384000000    -0.005232398000000
 H    1.799627138000000    5.413293076000001    -0.769730111000000
 H    -0.940935812000000    5.360431241000000    0.312720869000000
 H    2.587557919000000    -9.499234927000000    0.135347646000000
 C    1.668417431000000    -10.076811661000001    0.048666070000000
 C    1.747644657000000    -11.472097939999999    0.020301234000000
 H    2.716340755000000    -11.961810370000000    0.083887148000000
 C    0.587387732000000    -12.233175157000000    -0.090529017000000
 H    0.647187794000000    -13.318646664999999    -0.112089415000000
 C    -0.649782978000000    -11.600391646999999    -0.179517827000000
 H    -1.555831137000000    -12.195219917999999    -0.271924119000000
 C    -0.731452606000000    -10.203389259000000    -0.156230662000000
 H    -1.718823675000000    -9.766015883000000    -0.247607407000000
 C    0.427718932000000    -9.423711180000000    -0.033537642000000
 C    0.414569645000000    -7.926368438000000    -0.068127913000000
 O    1.418754286000000    -7.318170461000000    -0.432766820000000
 C    -0.793810107000000    -7.191618632000000    0.404347789000000
 C    -0.877792353000000    -5.853421191000000    0.403338528000000
 H    -1.640502742000000    -7.747308910000000    0.777198396000000
 N    0.062157931000000    -4.941488384000000    0.005232398000000
 H    -1.799627138000000    -5.413293076000001    0.769730111000000
 H    0.940935812000000    -5.360431241000000    -0.312720869000000




